findsym-output                          
   1.00000000000000     
    12.9991678092279930   -0.0000000005127450    0.0000000000000000
     0.0000034613857430   12.9991678092279930    0.0000000000000000
     0.0000000000000000    0.0000000000000000   20.4851125418045719
   Ta   Te
    24    96
Direct
  0.0000000000000000  0.0000000000000000  0.5691859799260470
  0.5000000140000012  0.5000000000000000  0.5691859799260470
  0.5000000000000000  0.0000000000000000  0.4308140200739530
  0.0000000000000000  0.5000000000000000  0.4308140200739530
  0.5000000000000000  0.0000000000000000  0.9308140200739530
  0.0000000000000000  0.5000000000000000  0.9308140200739530
  0.0000000000000000  0.0000000000000000  0.0691859749260502
  0.5000000140000012  0.5000000000000000  0.0691859749260502
  0.0000000000000000  0.0000000000000000  0.7631026231754774
  0.5000000140000012  0.5000000000000000  0.7631026231754774
  0.5000000000000000  0.0000000000000000  0.2368983548245254
  0.0000000000000000  0.5000000000000000  0.2368983548245254
  0.5000000000000000  0.0000000000000000  0.7368973768245226
  0.0000000000000000  0.5000000000000000  0.7368973768245226
  0.0000000000000000  0.0000000000000000  0.2631016451754746
  0.5000000140000012  0.5000000000000000  0.2631016451754746
  0.0000000000000000  0.0000000000000000  0.4152663006014166
  0.5000000140000012  0.5000000000000000  0.4152663006014166
  0.5000000000000000  0.0000000000000000  0.5847336523985831
  0.0000000000000000  0.5000000000000000  0.5847336523985831
  0.5000000000000000  0.0000000000000000  0.0847336703985775
  0.0000000000000000  0.5000000000000000  0.0847336703985775
  0.0000000000000000  0.0000000000000000  0.9152663936014207
  0.5000000140000012  0.5000000000000000  0.9152663936014207
  0.4394374569239616  0.3439047331822991  0.6659251667119648
  0.9394375079239623  0.8439047331822991  0.6659251667119648
  0.5605625190760364  0.1560952858177060  0.3340747872880385
  0.0605625190760364  0.6560952668177009  0.3340747872880385
  0.5605625330760375  0.6560952668177009  0.6659251667119648
  0.0605625190760364  0.1560952858177060  0.6659251667119648
  0.4394374709239628  0.8439047331822991  0.3340747872880385
  0.9394374939239682  0.3439047331822991  0.3340747872880385
  0.1560952918177207  0.9394375119239484  0.6659251667119648
  0.6560952968177176  0.4394374759239525  0.6659251667119648
  0.3439047161822799  0.0605625330760517  0.3340747872880385
  0.8439047301822811  0.5605625240760475  0.3340747872880385
  0.8439047161822799  0.0605625200760471  0.6659251667119648
  0.3439047301822811  0.5605625240760475  0.6659251667119648
  0.6560952368177198  0.9394375119239484  0.3340747872880385
  0.1560952788177161  0.4394374759239525  0.3340747872880385
  0.3439047391822996  0.9394375119239626  0.8340747872880385
  0.8439047621822979  0.4394374759239668  0.8340747872880385
  0.1560952878177062  0.0605625430760384  0.1659252017119641
  0.6560952648177008  0.5605625240760332  0.1659252017119641
  0.6560952508176996  0.0605625200760329  0.8340747872880385
  0.1560952828177022  0.5605625240760332  0.8340747872880385
  0.8439047021823001  0.9394375119239626  0.1659252017119641
  0.3439047261822950  0.4394374759239668  0.1659252017119641
  0.4394374709239486  0.1560953038177146  0.8340747872880385
  0.9394374839239532  0.6560952668177151  0.8340747872880385
  0.5605625060760460  0.3439047331822849  0.1659252017119641
  0.0605625200760471  0.8439047331822849  0.1659252017119641
  0.5605625200760471  0.8439047331822849  0.8340747872880385
  0.0605625200760471  0.3439047331822849  0.8340747872880385
  0.4394374839239532  0.6560952668177151  0.1659252017119641
  0.9394375439239511  0.1560952858177203  0.1659252017119641
  0.8360662999652035  0.9193431481752015  0.8353381320712714
  0.3360663229652019  0.4193430741752024  0.8353381320712714
  0.6639336540347998  0.0806568618247994  0.1646619259287334
  0.1639336860348024  0.5806568518247985  0.1646619259287334
  0.1639336910347993  0.0806568708248037  0.8353381320712714
  0.6639336680348009  0.5806568518247985  0.8353381320712714
  0.3360663359651994  0.9193430741752024  0.1646619259287334
  0.8360663589651978  0.4193430741752024  0.1646619259287334
  0.5806568358248398  0.3360663239651771  0.8353381320712714
  0.0806569138248392  0.8360663239651771  0.8353381320712714
  0.4193431411751618  0.1639337120348188  0.1646619259287334
  0.9193431171751669  0.6639336760348229  0.1646619259287334
  0.4193431541751664  0.6639336760348229  0.8353381320712714
  0.9193431771751648  0.1639336940348173  0.8353381320712714
  0.5806568498248339  0.8360663239651771  0.1646619259287334
  0.0806569188248361  0.3360663239651771  0.1646619259287334
  0.4193431451751977  0.8360663239651984  0.6646619149287289
  0.9193431311751965  0.3360663239651984  0.6646619149287289
  0.5806568588248027  0.6639336760348016  0.3353380620712727
  0.0806569188248005  0.1639336940347960  0.3353380620712727
  0.5806568448248015  0.1639336760348016  0.6646619149287289
  0.0806569138248037  0.6639336760348016  0.6646619149287289
  0.4193431311751965  0.3360663239651984  0.3353380620712727
  0.9193431451751977  0.8360663239651984  0.3353380620712727
  0.3360663399651784  0.0806568888248336  0.6646619149287289
  0.8360663159651764  0.5806569258248331  0.6646619149287289
  0.1639336880348168  0.9193431481751659  0.3353380620712727
  0.6639337110348222  0.4193430741751669  0.3353380620712727
  0.6639336510348173  0.9193431481751659  0.6646619149287289
  0.1639336920348171  0.4193430741751669  0.6646619149287289
  0.8360663029651789  0.0806568618248349  0.3353380620712727
  0.3360663159651764  0.5806568518248341  0.3353380620712727
  0.4256128684799307  0.3342360343854978  0.9965524342354186
  0.9256128814799283  0.8342360343854978  0.9965524342354186
  0.5743871085200709  0.1657639656145022  0.0034475677645815
  0.0743871365200732  0.6657639656145022  0.0034475677645815
  0.5743871225200721  0.6657639656145022  0.9965524342354186
  0.0743871365200732  0.1657639656145022  0.9965524342354186
  0.4256128814799283  0.8342360343854978  0.0034475677645815
  0.9256128684799307  0.3342360343854978  0.0034475677645815
  0.1657639396145285  0.9256128834799071  0.9965524342354186
  0.6657639996145264  0.4256128834799071  0.9965524342354186
  0.3342360503854707  0.0743871165200929  0.0034475677645815
  0.8342360273854723  0.5743871165200929  0.0034475677645815
  0.8342360143854748  0.0743871345200944  0.9965524342354186
  0.3342360273854723  0.5743871165200929  0.9965524342354186
  0.6657639396145285  0.9256128834799071  0.0034475677645815
  0.1657639626145269  0.4256128834799071  0.0034475677645815
  0.3342360443854915  0.9256128834799284  0.5034476127645817
  0.8342360673854969  0.4256128834799284  0.5034476127645817
  0.1657639466145042  0.0743871165200716  0.4965524342354186
  0.6657639596145017  0.5743871165200716  0.4965524342354186
  0.6657639466145042  0.0743871345200731  0.5034476127645817
  0.1657639596145017  0.5743871165200716  0.5034476127645817
  0.8342360073854920  0.9256128834799284  0.4965524342354186
  0.3342360303854974  0.4256128834799284  0.4965524342354186
  0.4256128764799030  0.1657639476145292  0.5034476127645817
  0.9256128534799046  0.6657639656145236  0.5034476127645817
  0.5743871005200916  0.3342360343854764  0.4965524342354186
  0.0743871325200942  0.8342360343854764  0.4965524342354186
  0.5743871145200927  0.8342360343854764  0.5034476127645817
  0.0743871325200942  0.3342360343854764  0.5034476127645817
  0.4256128894799076  0.6657639656145236  0.4965524342354186
  0.9256129124799060  0.1657639656145236  0.4965524342354186
 
  0.00000000E+00  0.00000000E+00  0.00000000E+00
  0.00000000E+00  0.00000000E+00  0.00000000E+00
  0.00000000E+00  0.00000000E+00  0.00000000E+00
  0.00000000E+00  0.00000000E+00  0.00000000E+00
  0.00000000E+00  0.00000000E+00  0.00000000E+00
  0.00000000E+00  0.00000000E+00  0.00000000E+00
  0.00000000E+00  0.00000000E+00  0.00000000E+00
  0.00000000E+00  0.00000000E+00  0.00000000E+00
  0.00000000E+00  0.00000000E+00  0.00000000E+00
  0.00000000E+00  0.00000000E+00  0.00000000E+00
  0.00000000E+00  0.00000000E+00  0.00000000E+00
  0.00000000E+00  0.00000000E+00  0.00000000E+00
  0.00000000E+00  0.00000000E+00  0.00000000E+00
  0.00000000E+00  0.00000000E+00  0.00000000E+00
  0.00000000E+00  0.00000000E+00  0.00000000E+00
  0.00000000E+00  0.00000000E+00  0.00000000E+00
  0.00000000E+00  0.00000000E+00  0.00000000E+00
  0.00000000E+00  0.00000000E+00  0.00000000E+00
  0.00000000E+00  0.00000000E+00  0.00000000E+00
  0.00000000E+00  0.00000000E+00  0.00000000E+00
  0.00000000E+00  0.00000000E+00  0.00000000E+00
  0.00000000E+00  0.00000000E+00  0.00000000E+00
  0.00000000E+00  0.00000000E+00  0.00000000E+00
  0.00000000E+00  0.00000000E+00  0.00000000E+00
  0.00000000E+00  0.00000000E+00  0.00000000E+00
  0.00000000E+00  0.00000000E+00  0.00000000E+00
  0.00000000E+00  0.00000000E+00  0.00000000E+00
  0.00000000E+00  0.00000000E+00  0.00000000E+00
  0.00000000E+00  0.00000000E+00  0.00000000E+00
  0.00000000E+00  0.00000000E+00  0.00000000E+00
  0.00000000E+00  0.00000000E+00  0.00000000E+00
  0.00000000E+00  0.00000000E+00  0.00000000E+00
  0.00000000E+00  0.00000000E+00  0.00000000E+00
  0.00000000E+00  0.00000000E+00  0.00000000E+00
  0.00000000E+00  0.00000000E+00  0.00000000E+00
  0.00000000E+00  0.00000000E+00  0.00000000E+00
  0.00000000E+00  0.00000000E+00  0.00000000E+00
  0.00000000E+00  0.00000000E+00  0.00000000E+00
  0.00000000E+00  0.00000000E+00  0.00000000E+00
  0.00000000E+00  0.00000000E+00  0.00000000E+00
  0.00000000E+00  0.00000000E+00  0.00000000E+00
  0.00000000E+00  0.00000000E+00  0.00000000E+00
  0.00000000E+00  0.00000000E+00  0.00000000E+00
  0.00000000E+00  0.00000000E+00  0.00000000E+00
  0.00000000E+00  0.00000000E+00  0.00000000E+00
  0.00000000E+00  0.00000000E+00  0.00000000E+00
  0.00000000E+00  0.00000000E+00  0.00000000E+00
  0.00000000E+00  0.00000000E+00  0.00000000E+00
  0.00000000E+00  0.00000000E+00  0.00000000E+00
  0.00000000E+00  0.00000000E+00  0.00000000E+00
  0.00000000E+00  0.00000000E+00  0.00000000E+00
  0.00000000E+00  0.00000000E+00  0.00000000E+00
  0.00000000E+00  0.00000000E+00  0.00000000E+00
  0.00000000E+00  0.00000000E+00  0.00000000E+00
  0.00000000E+00  0.00000000E+00  0.00000000E+00
  0.00000000E+00  0.00000000E+00  0.00000000E+00
  0.00000000E+00  0.00000000E+00  0.00000000E+00
  0.00000000E+00  0.00000000E+00  0.00000000E+00
  0.00000000E+00  0.00000000E+00  0.00000000E+00
  0.00000000E+00  0.00000000E+00  0.00000000E+00
  0.00000000E+00  0.00000000E+00  0.00000000E+00
  0.00000000E+00  0.00000000E+00  0.00000000E+00
  0.00000000E+00  0.00000000E+00  0.00000000E+00
  0.00000000E+00  0.00000000E+00  0.00000000E+00
  0.00000000E+00  0.00000000E+00  0.00000000E+00
  0.00000000E+00  0.00000000E+00  0.00000000E+00
  0.00000000E+00  0.00000000E+00  0.00000000E+00
  0.00000000E+00  0.00000000E+00  0.00000000E+00
  0.00000000E+00  0.00000000E+00  0.00000000E+00
  0.00000000E+00  0.00000000E+00  0.00000000E+00
  0.00000000E+00  0.00000000E+00  0.00000000E+00
  0.00000000E+00  0.00000000E+00  0.00000000E+00
  0.00000000E+00  0.00000000E+00  0.00000000E+00
  0.00000000E+00  0.00000000E+00  0.00000000E+00
  0.00000000E+00  0.00000000E+00  0.00000000E+00
  0.00000000E+00  0.00000000E+00  0.00000000E+00
  0.00000000E+00  0.00000000E+00  0.00000000E+00
  0.00000000E+00  0.00000000E+00  0.00000000E+00
  0.00000000E+00  0.00000000E+00  0.00000000E+00
  0.00000000E+00  0.00000000E+00  0.00000000E+00
  0.00000000E+00  0.00000000E+00  0.00000000E+00
  0.00000000E+00  0.00000000E+00  0.00000000E+00
  0.00000000E+00  0.00000000E+00  0.00000000E+00
  0.00000000E+00  0.00000000E+00  0.00000000E+00
  0.00000000E+00  0.00000000E+00  0.00000000E+00
  0.00000000E+00  0.00000000E+00  0.00000000E+00
  0.00000000E+00  0.00000000E+00  0.00000000E+00
  0.00000000E+00  0.00000000E+00  0.00000000E+00
  0.00000000E+00  0.00000000E+00  0.00000000E+00
  0.00000000E+00  0.00000000E+00  0.00000000E+00
  0.00000000E+00  0.00000000E+00  0.00000000E+00
  0.00000000E+00  0.00000000E+00  0.00000000E+00
  0.00000000E+00  0.00000000E+00  0.00000000E+00
  0.00000000E+00  0.00000000E+00  0.00000000E+00
  0.00000000E+00  0.00000000E+00  0.00000000E+00
  0.00000000E+00  0.00000000E+00  0.00000000E+00
  0.00000000E+00  0.00000000E+00  0.00000000E+00
  0.00000000E+00  0.00000000E+00  0.00000000E+00
  0.00000000E+00  0.00000000E+00  0.00000000E+00
  0.00000000E+00  0.00000000E+00  0.00000000E+00
  0.00000000E+00  0.00000000E+00  0.00000000E+00
  0.00000000E+00  0.00000000E+00  0.00000000E+00
  0.00000000E+00  0.00000000E+00  0.00000000E+00
  0.00000000E+00  0.00000000E+00  0.00000000E+00
  0.00000000E+00  0.00000000E+00  0.00000000E+00
  0.00000000E+00  0.00000000E+00  0.00000000E+00
  0.00000000E+00  0.00000000E+00  0.00000000E+00
  0.00000000E+00  0.00000000E+00  0.00000000E+00
  0.00000000E+00  0.00000000E+00  0.00000000E+00
  0.00000000E+00  0.00000000E+00  0.00000000E+00
  0.00000000E+00  0.00000000E+00  0.00000000E+00
  0.00000000E+00  0.00000000E+00  0.00000000E+00
  0.00000000E+00  0.00000000E+00  0.00000000E+00
  0.00000000E+00  0.00000000E+00  0.00000000E+00
  0.00000000E+00  0.00000000E+00  0.00000000E+00
  0.00000000E+00  0.00000000E+00  0.00000000E+00
  0.00000000E+00  0.00000000E+00  0.00000000E+00
  0.00000000E+00  0.00000000E+00  0.00000000E+00
  0.00000000E+00  0.00000000E+00  0.00000000E+00
  0.00000000E+00  0.00000000E+00  0.00000000E+00
