       N       E                     dE             d eps       ncg     rms          rms(c)
DAV:   1     0.600517230912E+04    0.60052E+04   -0.38480E+05356360   0.142E+03
DAV:   2    -0.892860652978E+02   -0.60945E+04   -0.58429E+04394880   0.263E+02
DAV:   3    -0.647052814505E+03   -0.55777E+03   -0.54141E+03387944   0.728E+01
DAV:   4    -0.669797974445E+03   -0.22745E+02   -0.22388E+02397888   0.141E+01
DAV:   5    -0.670991595675E+03   -0.11936E+01   -0.11895E+01487352   0.321E+00    0.953E+01
DAV:   6    -0.636045401323E+03    0.34946E+02   -0.10427E+02379664   0.109E+01    0.545E+01
DAV:   7    -0.623674211962E+03    0.12371E+02   -0.36514E+01373056   0.796E+00    0.345E+01
DAV:   8    -0.623719875563E+03   -0.45664E-01   -0.43929E+00402096   0.270E+00    0.138E+01
DAV:   9    -0.633798859844E+03   -0.10079E+02   -0.31438E+00385576   0.228E+00    0.994E+00
DAV:  10    -0.649035010379E+03   -0.15236E+02   -0.86802E+00373312   0.324E+00    0.736E+00
DAV:  11    -0.660825180044E+03   -0.11790E+02   -0.95021E+00364760   0.320E+00    0.488E+00
DAV:  12    -0.670024038223E+03   -0.91989E+01   -0.11871E+01375720   0.308E+00    0.304E+00
DAV:  13    -0.672765394462E+03   -0.27414E+01   -0.52558E+00382896   0.199E+00    0.169E+00
DAV:  14    -0.672900970827E+03   -0.13558E+00   -0.28844E-01387008   0.661E-01    0.738E-01
DAV:  15    -0.672928793216E+03   -0.27822E-01   -0.42690E-02382248   0.274E-01    0.356E-01
DAV:  16    -0.672943989331E+03   -0.15196E-01   -0.14524E-02377952   0.150E-01    0.160E-01
DAV:  17    -0.672949406256E+03   -0.54169E-02   -0.46134E-03365376   0.913E-02    0.995E-02
DAV:  18    -0.672950718193E+03   -0.13119E-02   -0.11939E-03380496   0.549E-02    0.489E-02
DAV:  19    -0.672951105091E+03   -0.38690E-03   -0.35583E-04371240   0.289E-02    0.304E-02
DAV:  20    -0.672951303478E+03   -0.19839E-03   -0.22313E-04360024   0.159E-02    0.156E-02
DAV:  21    -0.672951344965E+03   -0.41487E-04   -0.45614E-05369904   0.891E-03    0.845E-03
DAV:  22    -0.672951352417E+03   -0.74512E-05   -0.16122E-05342240   0.466E-03    0.588E-03
DAV:  23    -0.672951352813E+03   -0.39640E-06   -0.89605E-07275152   0.189E-03
   1 F= -.67295135E+03 E0= -.67295179E+03  d E =0.131960E-02  mag=     0.0001
