  PAW_PBE Ta_pv 07Sep2000                
   11.0000000000000     
 parameters from PSCTR are:
   VRHFIN =Ta:  5p6s5d
   LEXCH  = PE
   EATOM  =  1047.1984 eV,   76.9669 Ry

   TITEL  = PAW_PBE Ta_pv 07Sep2000
   LULTRA =        F    use ultrasoft PP ?
   IUNSCR =        1    unscreen: 0-lin 1-nonlin 2-no
   RPACOR =    2.330    partial core radius
   POMASS =  180.948; ZVAL   =   11.000    mass and valenz
   RCORE  =    2.500    outmost cutoff radius
   RWIGS  =    2.840; RWIGS  =    1.503    wigner-seitz radius (au A)
   ENMAX  =  223.667; ENMIN  =  167.750 eV
   RCLOC  =    2.205    cutoff for local pot
   LCOR   =        T    correct aug charges
   LPAW   =        T    paw PP
   EAUG   =  377.421
   DEXC   =    0.000
   RMAX   =    2.551    core radius for proj-oper
   RAUG   =    1.300    factor for augmentation sphere
   RDEP   =    2.526    radius for radial grids
   RDEPT  =    2.132    core radius for aug-charge
 
   Atomic configuration
   15 entries
     n  l   j            E        occ.
     1  0  0.50    -67341.2801   2.0000
     2  0  0.50    -11566.9369   2.0000
     2  1  1.50    -10134.1175   6.0000
     3  0  0.50     -2648.5614   2.0000
     3  1  1.50     -2222.6006   6.0000
     3  2  2.50     -1726.3114  10.0000
     4  0  0.50      -538.6957   2.0000
     4  1  1.50      -399.0125   6.0000
     4  2  2.50      -220.3955  10.0000
     4  3  3.50       -23.0371  14.0000
     5  0  0.50       -71.2900   2.0000
     5  1  1.50       -37.8224   6.0000
     5  2  2.50        -2.6455   4.0000
     6  0  0.50        -4.9623   1.0000
     5  3  2.50        -1.3606   0.0000
   Description
     l       E           TYP  RCUT    TYP  RCUT
     1    -37.8224449     23  2.500
     1      1.3605826     23  2.500
     2     -2.6454718     23  2.500
     2     -0.6258570     23  2.500
     0     -4.9622674     23  2.500
     0      4.7531427     23  2.500
   Error from kinetic energy argument (eV)
   NDATA  =      100
   STEP   =   20.000   1.050
  172.      168.      165.      161.      158.      154.      148.      146.
  141.      135.      132.      127.      121.      115.      109.      104.
  97.9      92.3      86.7      78.6      73.4      68.3      61.0      56.3
  51.9      45.6      39.8      36.2      31.2      26.7      22.7      19.1
  16.0      13.3      10.9      8.89      6.66      5.31      3.86      3.00
  2.11      1.46     0.987     0.657     0.432     0.283     0.187     0.117
 0.852E-01 0.630E-01 0.509E-01 0.444E-01 0.379E-01 0.320E-01 0.253E-01 0.203E-01
 0.160E-01 0.120E-01 0.907E-02 0.711E-02 0.581E-02 0.490E-02 0.420E-02 0.350E-02
 0.296E-02 0.240E-02 0.193E-02 0.157E-02 0.127E-02 0.107E-02 0.898E-03 0.754E-03
 0.631E-03 0.528E-03 0.435E-03 0.370E-03 0.312E-03 0.263E-03 0.218E-03 0.185E-03
 0.156E-03 0.133E-03 0.114E-03 0.957E-04 0.797E-04 0.674E-04 0.584E-04 0.505E-04
 0.429E-04 0.359E-04 0.301E-04 0.266E-04 0.231E-04 0.196E-04 0.163E-04 0.141E-04
 0.125E-04 0.108E-04 0.887E-05 0.775E-05
END of PSCTR-controll parameters
 local part
   75.5890395431569     
  0.20841167E+03  0.20836066E+03  0.20820764E+03  0.20795293E+03  0.20759698E+03
  0.20714044E+03  0.20658411E+03  0.20592896E+03  0.20517609E+03  0.20432676E+03
  0.20338233E+03  0.20234431E+03  0.20121432E+03  0.19999409E+03  0.19868548E+03
  0.19729047E+03  0.19581114E+03  0.19424972E+03  0.19260854E+03  0.19089005E+03
  0.18909682E+03  0.18723152E+03  0.18529693E+03  0.18329591E+03  0.18123142E+03
  0.17910648E+03  0.17692418E+03  0.17468766E+03  0.17240011E+03  0.17006474E+03
  0.16768483E+03  0.16526364E+03  0.16280449E+03  0.16031068E+03  0.15778554E+03
  0.15523240E+03  0.15265458E+03  0.15005539E+03  0.14743811E+03  0.14480603E+03
  0.14216236E+03  0.13951030E+03  0.13685299E+03  0.13419350E+03  0.13153487E+03
  0.12888004E+03  0.12623191E+03  0.12359328E+03  0.12096686E+03  0.11835532E+03
  0.11576119E+03  0.11318694E+03  0.11063493E+03  0.10810742E+03  0.10560659E+03
  0.10313448E+03  0.10069303E+03  0.98284095E+02  0.95909383E+02  0.93570506E+02
  0.91268956E+02  0.89006112E+02  0.86783238E+02  0.84601481E+02  0.82461878E+02
  0.80365352E+02  0.78312715E+02  0.76304667E+02  0.74341802E+02  0.72424603E+02
  0.70553451E+02  0.68728622E+02  0.66950291E+02  0.65218536E+02  0.63533339E+02
  0.61894593E+02  0.60302100E+02  0.58755582E+02  0.57254679E+02  0.55798956E+02
  0.54387907E+02  0.53020956E+02  0.51697467E+02  0.50416742E+02  0.49178028E+02
  0.47980520E+02  0.46823368E+02  0.45705675E+02  0.44626510E+02  0.43584904E+02
  0.42579860E+02  0.41610354E+02  0.40675343E+02  0.39773765E+02  0.38904544E+02
  0.38066596E+02  0.37258832E+02  0.36480157E+02  0.35729481E+02  0.35005715E+02
  0.34307778E+02  0.33634598E+02  0.32985117E+02  0.32358290E+02  0.31753091E+02
  0.31168516E+02  0.30603582E+02  0.30057330E+02  0.29528828E+02  0.29017171E+02
  0.28521487E+02  0.28040929E+02  0.27574686E+02  0.27121976E+02  0.26682052E+02
  0.26254198E+02  0.25837734E+02  0.25432011E+02  0.25036417E+02  0.24650372E+02
  0.24273332E+02  0.23904783E+02  0.23544249E+02  0.23191284E+02  0.22845474E+02
  0.22506438E+02  0.22173824E+02  0.21847309E+02  0.21526600E+02  0.21211428E+02
  0.20901553E+02  0.20596757E+02  0.20296848E+02  0.20001654E+02  0.19711025E+02
  0.19424832E+02  0.19142962E+02  0.18865321E+02  0.18591830E+02  0.18322425E+02
  0.18057055E+02  0.17795679E+02  0.17538269E+02  0.17284803E+02  0.17035269E+02
  0.16789660E+02  0.16547976E+02  0.16310219E+02  0.16076397E+02  0.15846518E+02
  0.15620594E+02  0.15398636E+02  0.15180656E+02  0.14966664E+02  0.14756668E+02
  0.14550677E+02  0.14348692E+02  0.14150715E+02  0.13956741E+02  0.13766763E+02
  0.13580767E+02  0.13398736E+02  0.13220647E+02  0.13046471E+02  0.12876177E+02
  0.12709726E+02  0.12547074E+02  0.12388173E+02  0.12232969E+02  0.12081404E+02
  0.11933414E+02  0.11788931E+02  0.11647883E+02  0.11510193E+02  0.11375779E+02
  0.11244558E+02  0.11116442E+02  0.10991341E+02  0.10869161E+02  0.10749810E+02
  0.10633189E+02  0.10519203E+02  0.10407752E+02  0.10298739E+02  0.10192065E+02
  0.10087630E+02  0.99853365E+01  0.98850881E+01  0.97867883E+01  0.96903428E+01
  0.95956592E+01  0.95026474E+01  0.94112199E+01  0.93212919E+01  0.92327819E+01
  0.91456118E+01  0.90597068E+01  0.89749958E+01  0.88914113E+01  0.88088900E+01
  0.87273719E+01  0.86468015E+01  0.85671268E+01  0.84883001E+01  0.84102777E+01
  0.83330199E+01  0.82564912E+01  0.81806601E+01  0.81054988E+01  0.80309837E+01
  0.79570948E+01  0.78838157E+01  0.78111332E+01  0.77390377E+01  0.76675222E+01
  0.75965827E+01  0.75262178E+01  0.74564286E+01  0.73872183E+01  0.73185922E+01
  0.72505577E+01  0.71831237E+01  0.71163006E+01  0.70501003E+01  0.69845355E+01
  0.69196199E+01  0.68553677E+01  0.67917936E+01  0.67289122E+01  0.66667384E+01
  0.66052865E+01  0.65445706E+01  0.64846041E+01  0.64253998E+01  0.63669697E+01
  0.63093249E+01  0.62524755E+01  0.61964303E+01  0.61411972E+01  0.60867825E+01
  0.60331914E+01  0.59804272E+01  0.59284921E+01  0.58773862E+01  0.58271083E+01
  0.57776555E+01  0.57290233E+01  0.56812054E+01  0.56341942E+01  0.55879805E+01
  0.55425537E+01  0.54979020E+01  0.54540120E+01  0.54108694E+01  0.53684584E+01
  0.53267622E+01  0.52857630E+01  0.52454421E+01  0.52057797E+01  0.51667553E+01
  0.51283477E+01  0.50905354E+01  0.50532963E+01  0.50166079E+01  0.49804478E+01
  0.49447934E+01  0.49096224E+01  0.48749124E+01  0.48406414E+01  0.48067877E+01
  0.47733301E+01  0.47402479E+01  0.47075208E+01  0.46751292E+01  0.46430544E+01
  0.46112783E+01  0.45797839E+01  0.45485551E+01  0.45175766E+01  0.44868347E+01
  0.44563164E+01  0.44260100E+01  0.43959050E+01  0.43659920E+01  0.43362628E+01
  0.43067102E+01  0.42773283E+01  0.42481120E+01  0.42190575E+01  0.41901621E+01
  0.41614239E+01  0.41328422E+01  0.41044172E+01  0.40761502E+01  0.40480431E+01
  0.40200989E+01  0.39923212E+01  0.39647145E+01  0.39372835E+01  0.39100339E+01
  0.38829713E+01  0.38561022E+01  0.38294328E+01  0.38029701E+01  0.37767207E+01
  0.37506916E+01  0.37248899E+01  0.36993225E+01  0.36739963E+01  0.36489180E+01
  0.36240941E+01  0.35995309E+01  0.35752341E+01  0.35512091E+01  0.35274609E+01
  0.35039938E+01  0.34808114E+01  0.34579170E+01  0.34353130E+01  0.34130013E+01
  0.33909829E+01  0.33692585E+01  0.33478280E+01  0.33266904E+01  0.33058444E+01
  0.32852877E+01  0.32650176E+01  0.32450305E+01  0.32253222E+01  0.32058879E+01
  0.31867221E+01  0.31678187E+01  0.31491712E+01  0.31307724E+01  0.31126149E+01
  0.30946907E+01  0.30769917E+01  0.30595094E+01  0.30422350E+01  0.30251598E+01
  0.30082746E+01  0.29915704E+01  0.29750380E+01  0.29586683E+01  0.29424521E+01
  0.29263803E+01  0.29104440E+01  0.28946347E+01  0.28789438E+01  0.28633634E+01
  0.28478856E+01  0.28325034E+01  0.28172098E+01  0.28019985E+01  0.27868636E+01
  0.27717998E+01  0.27568023E+01  0.27418668E+01  0.27269895E+01  0.27121672E+01
  0.26973972E+01  0.26826775E+01  0.26680066E+01  0.26533834E+01  0.26388078E+01
  0.26242800E+01  0.26098006E+01  0.25953711E+01  0.25809933E+01  0.25666693E+01
  0.25524019E+01  0.25381941E+01  0.25240491E+01  0.25099707E+01  0.24959626E+01
  0.24820291E+01  0.24681744E+01  0.24544029E+01  0.24407192E+01  0.24271280E+01
  0.24136338E+01  0.24002416E+01  0.23869557E+01  0.23737808E+01  0.23607211E+01
  0.23477809E+01  0.23349639E+01  0.23222739E+01  0.23097140E+01  0.22972873E+01
  0.22849964E+01  0.22728435E+01  0.22608306E+01  0.22489591E+01  0.22372301E+01
  0.22256445E+01  0.22142023E+01  0.22029036E+01  0.21917477E+01  0.21807335E+01
  0.21698596E+01  0.21591240E+01  0.21485243E+01  0.21380578E+01  0.21277214E+01
  0.21175116E+01  0.21074244E+01  0.20974560E+01  0.20876019E+01  0.20778576E+01
  0.20682183E+01  0.20586792E+01  0.20492351E+01  0.20398808E+01  0.20306111E+01
  0.20214206E+01  0.20123040E+01  0.20032559E+01  0.19942711E+01  0.19853444E+01
  0.19764707E+01  0.19676452E+01  0.19588633E+01  0.19501207E+01  0.19414133E+01
  0.19327372E+01  0.19240889E+01  0.19154652E+01  0.19068632E+01  0.18982804E+01
  0.18897146E+01  0.18811638E+01  0.18726267E+01  0.18641020E+01  0.18555891E+01
  0.18470876E+01  0.18385976E+01  0.18301195E+01  0.18216540E+01  0.18132024E+01
  0.18047661E+01  0.17963468E+01  0.17879466E+01  0.17795676E+01  0.17712125E+01
  0.17628837E+01  0.17545843E+01  0.17463172E+01  0.17380855E+01  0.17298924E+01
  0.17217414E+01  0.17136357E+01  0.17055789E+01  0.16975742E+01  0.16896250E+01
  0.16817346E+01  0.16739062E+01  0.16661427E+01  0.16584468E+01  0.16508214E+01
  0.16432687E+01  0.16357908E+01  0.16283899E+01  0.16210674E+01  0.16138249E+01
  0.16066636E+01  0.15995842E+01  0.15925873E+01  0.15856734E+01  0.15788422E+01
  0.15720936E+01  0.15654268E+01  0.15588408E+01  0.15523345E+01  0.15459062E+01
  0.15395540E+01  0.15332760E+01  0.15270697E+01  0.15209327E+01  0.15148623E+01
  0.15088556E+01  0.15029095E+01  0.14970210E+01  0.14911868E+01  0.14854036E+01
  0.14796679E+01  0.14739762E+01  0.14683251E+01  0.14627110E+01  0.14571306E+01
  0.14515803E+01  0.14460569E+01  0.14405572E+01  0.14350781E+01  0.14296167E+01
  0.14241705E+01  0.14187367E+01  0.14133132E+01  0.14078978E+01  0.14024886E+01
  0.13970841E+01  0.13916826E+01  0.13862831E+01  0.13808847E+01  0.13754866E+01
  0.13700884E+01  0.13646900E+01  0.13592916E+01  0.13538934E+01  0.13484962E+01
  0.13431009E+01  0.13377086E+01  0.13323205E+01  0.13269382E+01  0.13215633E+01
  0.13161977E+01  0.13108434E+01  0.13055022E+01  0.13001766E+01  0.12948686E+01
  0.12895806E+01  0.12843150E+01  0.12790742E+01  0.12738606E+01  0.12686767E+01
  0.12635248E+01  0.12584073E+01  0.12533263E+01  0.12482841E+01  0.12432825E+01
  0.12383234E+01  0.12334085E+01  0.12285394E+01  0.12237174E+01  0.12189437E+01
  0.12142193E+01  0.12095450E+01  0.12049215E+01  0.12003492E+01  0.11958283E+01
  0.11913588E+01  0.11869406E+01  0.11825732E+01  0.11782559E+01  0.11739880E+01
  0.11697683E+01  0.11655957E+01  0.11614688E+01  0.11573859E+01  0.11533454E+01
  0.11493455E+01  0.11453843E+01  0.11414596E+01  0.11375695E+01  0.11337117E+01
  0.11298840E+01  0.11260841E+01  0.11223097E+01  0.11185585E+01  0.11148281E+01
  0.11111163E+01  0.11074207E+01  0.11037393E+01  0.11000699E+01  0.10964105E+01
  0.10927592E+01  0.10891143E+01  0.10854743E+01  0.10818376E+01  0.10782029E+01
  0.10745690E+01  0.10709351E+01  0.10673001E+01  0.10636635E+01  0.10600247E+01
  0.10563833E+01  0.10527393E+01  0.10490925E+01  0.10454433E+01  0.10417920E+01
  0.10381390E+01  0.10344852E+01  0.10308314E+01  0.10271785E+01  0.10235277E+01
  0.10198801E+01  0.10162371E+01  0.10126000E+01  0.10089703E+01  0.10053494E+01
  0.10017390E+01  0.99814054E+00  0.99455577E+00  0.99098631E+00  0.98743380E+00
  0.98389988E+00  0.98038617E+00  0.97689423E+00  0.97342555E+00  0.96998156E+00
  0.96656359E+00  0.96317286E+00  0.95981047E+00  0.95647745E+00  0.95317465E+00
  0.94990284E+00  0.94666267E+00  0.94345463E+00  0.94027911E+00  0.93713637E+00
  0.93402651E+00  0.93094950E+00  0.92790517E+00  0.92489321E+00  0.92191314E+00
  0.91896437E+00  0.91604615E+00  0.91315764E+00  0.91029787E+00  0.90746576E+00
  0.90466016E+00  0.90187985E+00  0.89912354E+00  0.89638988E+00  0.89367748E+00
  0.89098492E+00  0.88831072E+00  0.88565340E+00  0.88301145E+00  0.88038336E+00
  0.87776763E+00  0.87516277E+00  0.87256734E+00  0.86997993E+00  0.86739920E+00
  0.86482389E+00  0.86225282E+00  0.85968489E+00  0.85711910E+00  0.85455455E+00
  0.85199044E+00  0.84942605E+00  0.84686079E+00  0.84429416E+00  0.84172574E+00
  0.83915526E+00  0.83658254E+00  0.83400751E+00  0.83143022E+00  0.82885085E+00
  0.82626969E+00  0.82368714E+00  0.82110370E+00  0.81851996E+00  0.81593663E+00
  0.81335445E+00  0.81077425E+00  0.80819691E+00  0.80562336E+00  0.80305455E+00
  0.80049150E+00  0.79793523E+00  0.79538678E+00  0.79284724E+00  0.79031768E+00
  0.78779917E+00  0.78529280E+00  0.78279960E+00  0.78032060E+00  0.77785676E+00
  0.77540900E+00  0.77297817E+00  0.77056506E+00  0.76817037E+00  0.76579472E+00
  0.76343868E+00  0.76110271E+00  0.75878721E+00  0.75649250E+00  0.75421881E+00
  0.75196629E+00  0.74973503E+00  0.74752499E+00  0.74533607E+00  0.74316806E+00
  0.74102067E+00  0.73889351E+00  0.73678612E+00  0.73469795E+00  0.73262836E+00
  0.73057668E+00  0.72854216E+00  0.72652403E+00  0.72452145E+00  0.72253357E+00
  0.72055950E+00  0.71859833E+00  0.71664914E+00  0.71471096E+00  0.71278284E+00
  0.71086381E+00  0.70895291E+00  0.70704917E+00  0.70515167E+00  0.70325950E+00
  0.70137179E+00  0.69948772E+00  0.69760654E+00  0.69572754E+00  0.69385008E+00
  0.69197357E+00  0.69009752E+00  0.68822145E+00  0.68634499E+00  0.68446781E+00
  0.68258964E+00  0.68071030E+00  0.67882965E+00  0.67694763E+00  0.67506428E+00
  0.67317968E+00  0.67129400E+00  0.66940749E+00  0.66752046E+00  0.66563327E+00
  0.66374636E+00  0.66186019E+00  0.65997529E+00  0.65809221E+00  0.65621151E+00
  0.65433382E+00  0.65245974E+00  0.65058994E+00  0.64872507E+00  0.64686581E+00
  0.64501286E+00  0.64316690E+00  0.64132864E+00  0.63949875E+00  0.63767792E+00
  0.63586679E+00  0.63406597E+00  0.63227604E+00  0.63049753E+00  0.62873094E+00
  0.62697669E+00  0.62523518E+00  0.62350674E+00  0.62179168E+00  0.62009023E+00
  0.61840260E+00  0.61672891E+00  0.61506928E+00  0.61342372E+00  0.61179223E+00
  0.61017471E+00  0.60857102E+00  0.60698095E+00  0.60540424E+00  0.60384057E+00
  0.60228956E+00  0.60075080E+00  0.59922385E+00  0.59770822E+00  0.59620339E+00
  0.59470885E+00  0.59322403E+00  0.59174836E+00  0.59028126E+00  0.58882213E+00
  0.58737035E+00  0.58592529E+00  0.58448633E+00  0.58305283E+00  0.58162416E+00
  0.58019973E+00  0.57877892E+00  0.57736119E+00  0.57594600E+00  0.57453285E+00
  0.57312127E+00  0.57171086E+00  0.57030121E+00  0.56889199E+00  0.56748289E+00
  0.56607363E+00  0.56466397E+00  0.56325373E+00  0.56184276E+00  0.56043094E+00
  0.55901823E+00  0.55760462E+00  0.55619016E+00  0.55477496E+00  0.55335916E+00
  0.55194296E+00  0.55052661E+00  0.54911038E+00  0.54769458E+00  0.54627954E+00
  0.54486563E+00  0.54345323E+00  0.54204274E+00  0.54063457E+00  0.53922917E+00
  0.53782699E+00  0.53642849E+00  0.53503415E+00  0.53364446E+00  0.53225990E+00
  0.53088096E+00  0.52950811E+00  0.52814180E+00  0.52678247E+00  0.52543052E+00
  0.52408634E+00  0.52275028E+00  0.52142265E+00  0.52010375E+00  0.51879383E+00
  0.51749312E+00  0.51620184E+00  0.51492014E+00  0.51364817E+00  0.51238603E+00
  0.51113376E+00  0.50989141E+00  0.50865893E+00  0.50743626E+00  0.50622328E+00
  0.50501984E+00  0.50382574E+00  0.50264074E+00  0.50146458E+00  0.50029696E+00
  0.49913757E+00  0.49798608E+00  0.49684211E+00  0.49570530E+00  0.49457524E+00
  0.49345153E+00  0.49233372E+00  0.49122138E+00  0.49011403E+00  0.48901122E+00
  0.48791247E+00  0.48681731E+00  0.48572529E+00  0.48463594E+00  0.48354885E+00
  0.48246361E+00  0.48137983E+00  0.48029715E+00  0.47921524E+00  0.47813379E+00
  0.47705251E+00  0.47597116E+00  0.47488949E+00  0.47380731E+00  0.47272444E+00
  0.47164074E+00  0.47055610E+00  0.46947047E+00  0.46838381E+00  0.46729615E+00
  0.46620753E+00  0.46511806E+00  0.46402787E+00  0.46293712E+00  0.46184600E+00
  0.46075473E+00  0.45966354E+00  0.45857270E+00  0.45748248E+00  0.45639318E+00
  0.45530512E+00  0.45421863E+00  0.45313407E+00  0.45205180E+00  0.45097220E+00
  0.44989568E+00  0.44882261E+00  0.44775340E+00  0.44668844E+00  0.44562809E+00
  0.44457272E+00  0.44352268E+00  0.44247828E+00  0.44143984E+00  0.44040763E+00
  0.43938191E+00  0.43836291E+00  0.43735087E+00  0.43634595E+00  0.43534834E+00
  0.43435817E+00  0.43337554E+00  0.43240053E+00  0.43143316E+00  0.43047343E+00
  0.42952131E+00  0.42857670E+00  0.42763949E+00  0.42670954E+00  0.42578665E+00
  0.42487063E+00  0.42396125E+00  0.42305825E+00  0.42216137E+00  0.42127032E+00
  0.42038479E+00  0.41950446E+00  0.41862898E+00  0.41775800E+00  0.41689114E+00
  0.41602802E+00  0.41516825E+00  0.41431143E+00  0.41345717E+00  0.41260508E+00
  0.41175479E+00  0.41090593E+00  0.41005817E+00  0.40921116E+00  0.40836462E+00
  0.40751824E+00  0.40667176E+00  0.40582493E+00  0.40497753E+00  0.40412935E+00
  0.40328020E+00  0.40242994E+00  0.40157845E+00  0.40072563E+00  0.39987144E+00
  0.39901585E+00  0.39815889E+00  0.39730062E+00  0.39644113E+00  0.39558053E+00
  0.39471898E+00  0.39385665E+00  0.39299375E+00  0.39213048E+00  0.39126708E+00
  0.39040381E+00  0.38954095E+00  0.38867877E+00  0.38781760E+00  0.38695775E+00
  0.38609956E+00  0.38524337E+00  0.38438953E+00  0.38353840E+00  0.38269032E+00
  0.38184564E+00  0.38100468E+00  0.38016775E+00  0.37933515E+00  0.37850715E+00
  0.37768403E+00  0.37686601E+00  0.37605332E+00  0.37524616E+00  0.37444471E+00
  0.37364913E+00  0.37285956E+00  0.37207611E+00  0.37129884E+00  0.37052782E+00
  0.36976304E+00  0.36900449E+00  0.36825212E+00  0.36750583E+00  0.36676550E+00
  0.36603098E+00  0.36530211E+00  0.36457869E+00  0.36386050E+00  0.36314730E+00
  0.36243885E+00  0.36173487E+00  0.36103507E+00  0.36033916E+00  0.35964682E+00
  0.35895770E+00  0.35827148E+00  0.35758780E+00  0.35690630E+00  0.35622664E+00
  0.35554847E+00  0.35487146E+00  0.35419527E+00  0.35351960E+00  0.35284417E+00
  0.35216869E+00  0.35149293E+00  0.35081664E+00  0.35013962E+00  0.34946166E+00
 gradient corrections used for XC
           5
 core charge-density (partial)
  0.13843150E+01  0.13836242E+01  0.13815536E+01  0.13781095E+01  0.13733017E+01
  0.13671442E+01  0.13596548E+01  0.13508551E+01  0.13407704E+01  0.13294294E+01
  0.13168643E+01  0.13031105E+01  0.12882066E+01  0.12721939E+01  0.12551164E+01
  0.12370208E+01  0.12179558E+01  0.11979723E+01  0.11771229E+01  0.11554620E+01
  0.11330451E+01  0.11099289E+01  0.10861711E+01  0.10618298E+01  0.10369638E+01
  0.10116318E+01  0.98589262E+00  0.95980485E+00  0.93342657E+00  0.90681518E+00
  0.88002729E+00  0.85311842E+00  0.82614292E+00  0.79915379E+00  0.77220250E+00
  0.74533889E+00  0.71861104E+00  0.69206512E+00  0.66574535E+00  0.63969387E+00
  0.61395068E+00  0.58855359E+00  0.56353811E+00  0.53893750E+00  0.51478266E+00
  0.49110215E+00  0.46792219E+00  0.44526663E+00  0.42315699E+00  0.40161247E+00
  0.38064997E+00  0.36028416E+00  0.34052747E+00  0.32139020E+00  0.30288054E+00
  0.28500464E+00  0.26776670E+00  0.25116900E+00  0.23521204E+00  0.21989456E+00
  0.20521364E+00  0.19116484E+00  0.17774220E+00  0.16493840E+00  0.15274481E+00
  0.14115162E+00  0.13014790E+00  0.11972168E+00  0.10986009E+00  0.10054941E+00
  0.91775181E-01  0.83522269E-01  0.75774969E-01  0.68517082E-01  0.61731994E-01
  0.55402756E-01  0.49512158E-01  0.44042801E-01  0.38977167E-01  0.34297682E-01
  0.29986782E-01  0.26026969E-01  0.22400866E-01  0.19091272E-01  0.16081205E-01
  0.13353954E-01  0.10893112E-01  0.86826183E-02  0.67067928E-02  0.49503638E-02
  0.33984971E-02  0.20368194E-02  0.85143892E-03 -0.17103699E-03 -0.10434874E-02
 -0.17782662E-02 -0.23871932E-02 -0.28815480E-02 -0.32720662E-02 -0.35689386E-02
 -0.37818117E-02 -0.39197912E-02 -0.39914469E-02 -0.40048197E-02 -0.39674305E-02
 -0.38862901E-02 -0.37679110E-02 -0.36183203E-02 -0.34430736E-02 -0.32472704E-02
 -0.30355698E-02 -0.28122072E-02 -0.25810119E-02 -0.23454247E-02 -0.21085161E-02
 -0.18730051E-02 -0.16412781E-02 -0.14154072E-02 -0.11971695E-02 -0.98806575E-03
 -0.78933891E-03 -0.60199260E-03 -0.42680909E-03 -0.26436706E-03 -0.11505879E-03
  0.20893004E-04  0.14341896E-03  0.25258737E-03  0.34858907E-03  0.43172308E-03
  0.50238273E-03  0.56104265E-03  0.60824629E-03  0.64459429E-03  0.67073348E-03
  0.68734663E-03  0.69514292E-03  0.69484913E-03  0.68720150E-03  0.67293835E-03
  0.65279336E-03  0.62748944E-03  0.59773339E-03  0.56421110E-03  0.52758334E-03
  0.48848220E-03  0.44750800E-03  0.40522683E-03  0.36216852E-03  0.31882508E-03
  0.27564961E-03  0.23305562E-03  0.19141675E-03  0.15106677E-03  0.11229999E-03
  0.75371924E-04  0.40500199E-04  0.78657480E-05 -0.22385830E-04 -0.50142715E-04
 -0.75325153E-04 -0.97883625E-04 -0.11779690E-03 -0.13507001E-03 -0.14973217E-03
 -0.16183466E-03 -0.17144868E-03 -0.17866320E-03 -0.18358283E-03 -0.18632574E-03
 -0.18702160E-03 -0.18580958E-03 -0.18283640E-03 -0.17825454E-03 -0.17222041E-03
 -0.16489275E-03 -0.15643102E-03 -0.14699393E-03 -0.13673815E-03 -0.12581703E-03
 -0.11437946E-03 -0.10256893E-03 -0.90522579E-04 -0.78370459E-04 -0.66234847E-04
 -0.54229710E-04 -0.42460253E-04 -0.31022584E-04 -0.20003467E-04 -0.94801820E-05
  0.47953497E-06  0.98174633E-05  0.18484791E-04  0.26441937E-04  0.33658305E-04
  0.40111979E-04  0.45789364E-04  0.50684779E-04  0.54800011E-04  0.58143833E-04
  0.60731489E-04  0.62584164E-04  0.63728430E-04  0.64195684E-04  0.64021578E-04
  0.63245449E-04  0.61909753E-04  0.60059501E-04  0.57741718E-04  0.55004906E-04
  0.51898531E-04  0.48472537E-04  0.44776875E-04  0.40861068E-04  0.36773798E-04
  0.32562530E-04  0.28273165E-04  0.23949724E-04  0.19634073E-04  0.15365673E-04
  0.11181371E-04  0.71152240E-05  0.31983536E-05 -0.54116379E-06 -0.40783750E-05
 -0.73914983E-05 -0.10461941E-04 -0.13274290E-04 -0.15816273E-04 -0.18078700E-04
 -0.20055379E-04 -0.21743008E-04 -0.23141051E-04 -0.24251600E-04 -0.25079217E-04
 -0.25630762E-04 -0.25915218E-04 -0.25943502E-04 -0.25728266E-04 -0.25283700E-04
 -0.24625329E-04 -0.23769810E-04 -0.22734728E-04 -0.21538395E-04 -0.20199654E-04
 -0.18737689E-04 -0.17171837E-04 -0.15521416E-04 -0.13805552E-04 -0.12043027E-04
 -0.10252125E-04 -0.84505021E-05 -0.66550614E-05 -0.48818399E-05 -0.31459117E-05
 -0.14613020E-05  0.15908526E-06  0.17035266E-05  0.31615259E-05  0.45238475E-05
  0.57825386E-05  0.69309376E-05  0.79636730E-05  0.88766499E-05  0.96670268E-05
  0.10333183E-04  0.10874676E-04  0.11292193E-04  0.11587492E-04  0.11763338E-04
  0.11823436E-04  0.11772351E-04  0.11615436E-04  0.11358745E-04  0.11008953E-04
  0.10573267E-04  0.10059342E-04  0.94751931E-05  0.88291100E-05  0.81295739E-05
  0.73851740E-05  0.66045282E-05  0.57962072E-05  0.49686612E-05  0.41301518E-05
  0.32886878E-05  0.24519660E-05  0.16273180E-05  0.82166084E-06  0.41454637E-07
 -0.70733462E-06 -0.14192665E-05 -0.20894518E-05 -0.27135718E-05 -0.32878932E-05
 -0.38092756E-05 -0.42751752E-05 -0.46836424E-05 -0.50333145E-05 -0.53234036E-05
 -0.55536807E-05 -0.57244547E-05 -0.58365484E-05 -0.58912705E-05 -0.58903849E-05
 -0.58360775E-05 -0.57309200E-05 -0.55778326E-05 -0.53800446E-05 -0.51410545E-05
 -0.48645886E-05 -0.45545600E-05 -0.42150269E-05 -0.38501521E-05 -0.34641626E-05
 -0.30613098E-05 -0.26458325E-05 -0.22219195E-05 -0.17936758E-05 -0.13650896E-05
 -0.94000212E-06 -0.52207979E-06 -0.11478882E-06  0.27862749E-06  0.65516858E-06
  0.10120938E-05  0.13469364E-05  0.16575152E-05  0.19419429E-05  0.21986314E-05
  0.24262952E-05  0.26239511E-05  0.27909160E-05  0.29268017E-05  0.30315078E-05
  0.31052122E-05  0.31483594E-05  0.31616471E-05  0.31460113E-05  0.31026092E-05
  0.30328017E-05  0.29381342E-05  0.28203165E-05  0.26812024E-05  0.25227683E-05
  0.23470918E-05  0.21563300E-05  0.19526981E-05  0.17384481E-05  0.15158478E-05
  0.12871607E-05  0.10546264E-05  0.82044178E-06  0.58674361E-06  0.35559187E-06
  0.12895446E-06 -0.91306789E-07 -0.30344871E-06 -0.50585797E-06 -0.69706075E-06
 -0.87573087E-06 -0.10406964E-05 -0.11909447E-05 -0.13256259E-05 -0.14440550E-05
 -0.15457123E-05 -0.16302425E-05 -0.16974522E-05 -0.17473068E-05 -0.17799250E-05
 -0.17955730E-05 -0.17946577E-05 -0.17777180E-05 -0.17454163E-05 -0.16985289E-05
 -0.16379349E-05 -0.15646059E-05 -0.14795944E-05 -0.13840221E-05 -0.12790677E-05
 -0.11659553E-05 -0.10459417E-05 -0.92030528E-06 -0.79033336E-06 -0.65731128E-06
 -0.52251104E-06 -0.38718078E-06 -0.25253456E-06 -0.11974297E-06  0.10075775E-07
  0.13586390E-06  0.25663143E-06  0.37146269E-06  0.47952200E-06  0.58005851E-06
  0.67241011E-06  0.75600650E-06  0.83037140E-06  0.89512379E-06  0.94997837E-06
  0.99474519E-06  0.10293284E-05  0.10537243E-05  0.10680185E-05  0.10723828E-05
  0.10670707E-05  0.10524134E-05  0.10288139E-05  0.99674188E-06  0.95672751E-06
  0.90935505E-06  0.85525622E-06  0.79510330E-06  0.72960211E-06  0.65948491E-06
  0.58550329E-06  0.50842101E-06  0.42900709E-06  0.34802894E-06  0.26624571E-06
  0.18440198E-06  0.10322168E-06  0.23402363E-07 -0.54390057E-07 -0.12952624E-06
 -0.20141782E-06 -0.26952141E-06 -0.33334199E-06 -0.39243594E-06 -0.44641335E-06
 -0.49494001E-06 -0.53773869E-06 -0.57459000E-06 -0.60533267E-06 -0.62986336E-06
 -0.64813595E-06 -0.66016038E-06 -0.66600099E-06 -0.66577449E-06 -0.65964752E-06
 -0.64783383E-06 -0.63059112E-06 -0.60821765E-06 -0.58104850E-06 -0.54945170E-06
 -0.51382412E-06 -0.47458727E-06 -0.43218293E-06 -0.38706882E-06 -0.33971416E-06
 -0.29059529E-06 -0.24019136E-06 -0.18898009E-06 -0.13743361E-06 -0.86014583E-07
 -0.35172366E-07  0.14660509E-07  0.63071663E-07  0.10967192E-06  0.15409809E-06
  0.19601545E-06  0.23511987E-06  0.27113974E-06  0.30383741E-06  0.33301043E-06
  0.35849237E-06  0.38015335E-06  0.39790022E-06  0.41167646E-06  0.42146169E-06
  0.42727095E-06  0.42915367E-06  0.42719235E-06  0.42150102E-06  0.41222343E-06
  0.39953109E-06  0.38362103E-06  0.36471349E-06  0.34304939E-06  0.31888775E-06
  0.29250296E-06  0.26418202E-06  0.23422175E-06  0.20292594E-06  0.17060256E-06
  0.13756095E-06  0.10410916E-06  0.70551217E-07  0.37184664E-07  0.42980821E-08
 -0.27831177E-07 -0.58939131E-07 -0.88777137E-07 -0.11711368E-06 -0.14373595E-06
 -0.16845128E-06 -0.19108829E-06 -0.21149789E-06 -0.22955403E-06 -0.24515423E-06
 -0.25821992E-06 -0.26869658E-06 -0.27655356E-06 -0.28178385E-06 -0.28440356E-06
 -0.28445122E-06 -0.28198691E-06 -0.27709125E-06 -0.26986421E-06 -0.26042376E-06
 -0.24890447E-06 -0.23545589E-06 -0.22024096E-06 -0.20343424E-06 -0.18522014E-06
 -0.16579110E-06 -0.14534570E-06 -0.12408680E-06 -0.10221973E-06 -0.79950350E-07
 -0.57483352E-07 -0.35020438E-07 -0.12758664E-07  0.91111690E-08  0.30406032E-07
  0.50952082E-07  0.70585961E-07  0.89155978E-07  0.10652316E-06  0.12256219E-06
  0.13716215E-06  0.15022720E-06  0.16167704E-06  0.17144729E-06  0.17948965E-06
  0.18577201E-06  0.19027833E-06  0.19300844E-06  0.19397767E-06  0.19321641E-06
  0.19076944E-06  0.18669533E-06  0.18106551E-06  0.17396346E-06  0.16548367E-06
  0.15573057E-06  0.14481745E-06  0.13286524E-06  0.12000131E-06  0.10635822E-06
  0.92072450E-07  0.77283142E-07  0.62130819E-07  0.46756142E-07  0.31298683E-07
  0.15895733E-07  0.68116332E-09 -0.14215670E-07 -0.28670950E-07 -0.42567357E-07
 -0.55794949E-07 -0.68251961E-07 -0.79845514E-07 -0.90492233E-07 -0.10011877E-06
 -0.10866224E-06 -0.11607052E-06 -0.12230249E-06 -0.12732819E-06 -0.13112878E-06
 -0.13369652E-06 -0.13503460E-06 -0.13515685E-06 -0.13408746E-06 -0.13186048E-06
 -0.12851936E-06 -0.12411641E-06 -0.11871207E-06 -0.11237431E-06 -0.10517783E-06
 -0.97203288E-07 -0.88536478E-07 -0.79267475E-07 -0.69489763E-07 -0.59299358E-07
 -0.48793921E-07 -0.38071870E-07 -0.27231515E-07 -0.16370205E-07 -0.55835004E-08
  0.50356225E-08  0.15397525E-07  0.25416617E-07  0.35012024E-07  0.44108188E-07
  0.52635423E-07  0.60530402E-07  0.67736576E-07  0.74204536E-07  0.79892295E-07
  0.84765507E-07  0.88797616E-07  0.91969927E-07  0.94271616E-07  0.95699670E-07
  0.96258752E-07  0.95961020E-07  0.94825862E-07  0.92879595E-07  0.90155094E-07
  0.86691381E-07  0.82533166E-07  0.77730345E-07  0.72337467E-07  0.66413168E-07
  0.60019585E-07  0.53221744E-07  0.46086942E-07  0.38684117E-07  0.31083217E-07
  0.23354574E-07  0.15568282E-07  0.77935976E-08  0.98348860E-10 -0.74516237E-08
 -0.14793002E-07 -0.21865494E-07 -0.28612298E-07 -0.34980530E-07 -0.40921611E-07
 -0.46391607E-07 -0.51351522E-07 -0.55767543E-07 -0.59611237E-07 -0.62859700E-07
 -0.65495646E-07 -0.67507456E-07 -0.68889171E-07 -0.69640439E-07 -0.69766414E-07
 -0.69277604E-07 -0.68189686E-07 -0.66523271E-07 -0.64303631E-07 -0.61560396E-07
 -0.58327217E-07 -0.54641393E-07 -0.50543487E-07 -0.46076908E-07 -0.41287483E-07
 -0.36223016E-07 -0.30932834E-07 -0.25467330E-07 -0.19877508E-07 -0.14214527E-07
 -0.85292523E-08 -0.28718209E-08  0.27087819E-08  0.81651277E-08  0.13451729E-07
  0.18525399E-07  0.23345586E-07  0.27874679E-07  0.32078279E-07  0.35925443E-07
  0.39388892E-07  0.42445178E-07  0.45074824E-07  0.47262418E-07  0.48996678E-07
  0.50270477E-07  0.51080826E-07  0.51428833E-07  0.51319615E-07  0.50762187E-07
  0.49769313E-07  0.48357327E-07  0.46545932E-07  0.44357966E-07  0.41819151E-07
  0.38957817E-07  0.35804610E-07  0.32392187E-07  0.28754894E-07  0.24928442E-07
  0.20949569E-07  0.16855705E-07  0.12684634E-07  0.84741579E-08  0.42617707E-08
  0.84335641E-10 -0.40222240E-08 -0.80232206E-08 -0.11885483E-07 -0.15577617E-07
 -0.19070253E-07 -0.22336258E-07 -0.25350942E-07 -0.28092225E-07 -0.30540787E-07
 -0.32680190E-07 -0.34496967E-07 -0.35980694E-07 -0.37124027E-07 -0.37922714E-07
 -0.38375577E-07 -0.38484475E-07 -0.38254234E-07 -0.37692555E-07 -0.36809897E-07
 -0.35619346E-07 -0.34136449E-07 -0.32379045E-07 -0.30367065E-07 -0.28122330E-07
 -0.25668326E-07 -0.23029971E-07 -0.20233379E-07 -0.17305611E-07 -0.14274420E-07
 -0.11168007E-07 -0.80147582E-08 -0.48430045E-08 -0.16807699E-08  0.14444648E-08
  0.45059920E-08  0.74780974E-08  0.10336267E-07  0.13057379E-07  0.15619887E-07
  0.18003974E-07  0.20191705E-07  0.22167144E-07  0.23916467E-07  0.25428044E-07
  0.26692505E-07  0.27702786E-07  0.28454152E-07  0.28944203E-07  0.29172854E-07
  0.29142299E-07  0.28856957E-07  0.28323397E-07  0.27550247E-07  0.26548084E-07
  0.25329314E-07  0.23908032E-07  0.22299875E-07  0.20521858E-07  0.18592208E-07
  0.16530185E-07  0.14355898E-07  0.12090114E-07  0.97540727E-08  0.73692894E-08
  0.49573661E-08  0.25398013E-08  0.13780525E-09 -0.22278804E-08 -0.45371553E-08
 -0.67707251E-08 -0.89102569E-08 -0.10938523E-07 -0.12839535E-07 -0.14598661E-07
 -0.16202734E-07 -0.17640143E-07 -0.18900907E-07 -0.19976744E-07 -0.20861107E-07
 -0.21549221E-07 -0.22038095E-07 -0.22326520E-07 -0.22415054E-07 -0.22305987E-07
 -0.22003295E-07 -0.21512585E-07 -0.20841012E-07 -0.19997201E-07 -0.18991146E-07
 -0.17834101E-07 -0.16538467E-07 -0.15117664E-07 -0.13585998E-07 -0.11958524E-07
 -0.10250907E-07 -0.84792707E-08 -0.66600543E-08 -0.48098640E-08 -0.29453254E-08
 -0.10829396E-08  0.76105946E-09  0.25708413E-08  0.43311110E-08  0.60272338E-08
  0.76453530E-08  0.91724984E-08  0.10596686E-07  0.11907007E-07  0.13093708E-07
  0.14148257E-07  0.15063402E-07  0.15833210E-07  0.16453105E-07  0.16919884E-07
  0.17231727E-07  0.17388190E-07  0.17390188E-07  0.17239973E-07  0.16941085E-07
  0.16498313E-07  0.15917626E-07  0.15206109E-07  0.14371884E-07  0.13424022E-07
  0.12372456E-07  0.11227873E-07  0.10001620E-07  0.87055879E-08  0.73521043E-08
  0.59538190E-08  0.45235892E-08  0.30743647E-08  0.16190739E-08  0.17051184E-09
 -0.12587693E-08 -0.26565656E-08 -0.40111232E-08 -0.53112330E-08 -0.65463215E-08
 -0.77065326E-08 -0.87828039E-08 -0.97669335E-08 -0.10651640E-07 -0.11430610E-07
 -0.12098545E-07 -0.12651186E-07 -0.13085341E-07 -0.13398894E-07 -0.13590811E-07
 -0.13661134E-07 -0.13610960E-07 -0.13442426E-07 -0.13158666E-07 -0.12763775E-07
 -0.12262759E-07 -0.11661481E-07 -0.10966591E-07 -0.10185466E-07 -0.93261278E-08
 -0.83971704E-08 -0.74076732E-08 -0.63671171E-08 -0.52852959E-08 -0.41722269E-08
 -0.30380608E-08 -0.18929912E-08 -0.74716573E-09  0.38940192E-09  0.15069169E-08
  0.25958857E-08  0.36471943E-08  0.46521822E-08  0.56027118E-08  0.64912319E-08
  0.73108348E-08  0.80553085E-08  0.87191803E-08  0.92977548E-08  0.97871439E-08
  0.10184290E-07  0.10486980E-07  0.10693856E-07  0.10804411E-07  0.10818985E-07
  0.10738751E-07  0.10565691E-07  0.10302570E-07  0.99528983E-08  0.95208957E-08
  0.90114410E-08  0.84300226E-08  0.77826819E-08  0.70759540E-08  0.63168034E-08
  0.55125583E-08  0.46708417E-08  0.37995011E-08  0.29065373E-08  0.20000329E-08
  0.10880808E-08  0.17871348E-09 -0.72016577E-09 -0.16008500E-08 -0.24558932E-08
 -0.32781711E-08 -0.40609396E-08 -0.47978878E-08 -0.54831875E-08 -0.61115373E-08
 -0.66782019E-08 -0.71790460E-08 -0.76105620E-08 -0.79698925E-08 -0.82548465E-08
 -0.84639100E-08 -0.85962497E-08 -0.86517122E-08 -0.86308156E-08 -0.85347367E-08
 -0.83652922E-08 -0.81249142E-08 -0.78166214E-08 -0.74439851E-08 -0.70110910E-08
 -0.65224966E-08 -0.59831861E-08 -0.53985210E-08 -0.47741889E-08 -0.41161495E-08
 -0.34305796E-08 -0.27238163E-08 -0.20022999E-08 -0.12725166E-08 -0.54094146E-09
  0.18601798E-09  0.90207623E-09  0.16011232E-08  0.22772751E-08  0.29249225E-08
  0.35387761E-08  0.41139082E-08  0.46457911E-08  0.51303317E-08  0.55639010E-08
  0.59433604E-08  0.62660823E-08  0.65299669E-08  0.67334533E-08  0.68755269E-08
  0.69557208E-08  0.69741131E-08  0.69313196E-08  0.68284813E-08  0.66672483E-08
  0.64497584E-08  0.61786134E-08  0.58568495E-08  0.54879063E-08  0.50755915E-08
  0.46240433E-08  0.41376901E-08  0.36212085E-08  0.30794795E-08  0.25175433E-08
  0.19405541E-08  0.13537329E-08  0.76232204E-09  0.17153902E-09 -0.41346862E-09
 -0.98766717E-09 -0.15461791E-08 -0.20843237E-08 -0.25976550E-08 -0.30819983E-08
 -0.35334823E-08 -0.39485698E-08 -0.43240836E-08 -0.46572307E-08 -0.49456209E-08
 -0.51872836E-08 -0.53806789E-08 -0.55247067E-08 -0.56187099E-08 -0.56624758E-08
 -0.56562316E-08 -0.56006377E-08 -0.54967764E-08 -0.53461374E-08 -0.51506001E-08
 -0.49124124E-08 -0.46341665E-08 -0.43187725E-08 -0.39694293E-08 -0.35895927E-08
 -0.31829431E-08 -0.27533501E-08 -0.23048368E-08 -0.18415431E-08 -0.13676880E-08
 -0.88753200E-09 -0.40533989E-09  0.74656886E-10  0.54829639E-09  0.10115216E-08
  0.14604146E-08  0.18912288E-08  0.23004196E-08  0.26846729E-08  0.30409310E-08
 kinetic energy density (partial)
  0.13286899E+03  0.13280501E+03  0.13261323E+03  0.13229420E+03  0.13184877E+03
  0.13127818E+03  0.13058399E+03  0.12976809E+03  0.12883270E+03  0.12778036E+03
  0.12661389E+03  0.12533642E+03  0.12395135E+03  0.12246233E+03  0.12087327E+03
  0.11918830E+03  0.11741176E+03  0.11554817E+03  0.11360225E+03  0.11157883E+03
  0.10948291E+03  0.10731960E+03  0.10509407E+03  0.10281160E+03  0.10047750E+03
  0.98097114E+02  0.95675813E+02  0.93218951E+02  0.90731858E+02  0.88219824E+02
  0.85688078E+02  0.83141772E+02  0.80585967E+02  0.78025617E+02  0.75465554E+02
  0.72910475E+02  0.70364933E+02  0.67833319E+02  0.65319860E+02  0.62828604E+02
  0.60363414E+02  0.57927961E+02  0.55525717E+02  0.53159952E+02  0.50833726E+02
  0.48549890E+02  0.46311084E+02  0.44119731E+02  0.41978043E+02  0.39888015E+02
  0.37851434E+02  0.35869875E+02  0.33944705E+02  0.32077091E+02  0.30267998E+02
  0.28518198E+02  0.26828276E+02  0.25198632E+02  0.23629491E+02  0.22120909E+02
  0.20672780E+02  0.19284841E+02  0.17956685E+02  0.16687764E+02  0.15477402E+02
  0.14324798E+02  0.13229037E+02  0.12189099E+02  0.11203869E+02  0.10272139E+02
  0.93926230E+01  0.85639634E+01  0.77847372E+01  0.70534658E+01  0.63686225E+01
  0.57286396E+01  0.51319161E+01  0.45768251E+01  0.40617200E+01  0.35849415E+01
  0.31448238E+01  0.27397003E+01  0.23679100E+01  0.20278017E+01  0.17177400E+01
  0.14361096E+01  0.11813193E+01  0.95180682E+00  0.74604150E+00  0.56252836E+00
  0.39981078E+00  0.25647329E+00  0.13114388E+00  0.22496098E-01 -0.70749180E-01
 -0.14982231E+00 -0.21590369E+00 -0.27012281E+00 -0.31355763E+00 -0.34723413E+00
 -0.37212616E+00 -0.38915548E+00 -0.39919200E+00 -0.40305421E+00 -0.40150984E+00
 -0.39527666E+00 -0.38502338E+00 -0.37137079E+00 -0.35489294E+00 -0.33611853E+00
 -0.31553227E+00 -0.29357646E+00 -0.27065258E+00 -0.24712292E+00 -0.22331237E+00
 -0.19951008E+00 -0.17597136E+00 -0.15291941E+00 -0.13054718E+00 -0.10901920E+00
 -0.88473388E-01 -0.69022860E-01 -0.50757716E-01 -0.33746795E-01 -0.18039397E-01
 -0.36669583E-02  0.93553088E-02  0.21026839E-01  0.31360183E-01  0.40379541E-01
  0.48119355E-01  0.54622968E-01  0.59941344E-01  0.64131866E-01  0.67257197E-01
  0.69384209E-01  0.70582990E-01  0.70925917E-01  0.70486799E-01  0.69340093E-01
  0.67560184E-01  0.65220738E-01  0.62394116E-01  0.59150852E-01  0.55559197E-01
  0.51684719E-01  0.47589962E-01  0.43334158E-01  0.38972992E-01  0.34558419E-01
  0.30138524E-01  0.25757422E-01  0.21455210E-01  0.17267945E-01  0.13227662E-01
  0.93624221E-02  0.56963920E-02  0.22499446E-02 -0.96021362E-03 -0.39208973E-02
 -0.66222785E-02 -0.90577085E-02 -0.11223528E-01 -0.13118865E-01 -0.14745429E-01
 -0.16107299E-01 -0.17210704E-01 -0.18063805E-01 -0.18676481E-01 -0.19060112E-01
 -0.19227365E-01 -0.19191992E-01 -0.18968625E-01 -0.18572584E-01 -0.18019694E-01
 -0.17326107E-01 -0.16508138E-01 -0.15582107E-01 -0.14564197E-01 -0.13470320E-01
 -0.12315997E-01 -0.11116246E-01 -0.98854844E-02 -0.86374453E-02 -0.73851007E-02
 -0.61405993E-02 -0.49152149E-02 -0.37193050E-02 -0.25622808E-02 -0.14525863E-02
 -0.39768769E-03  0.59592909E-03  0.15227516E-02  0.23782269E-02  0.31587401E-02
  0.38615864E-02  0.44849375E-02  0.50278020E-02  0.54899824E-02  0.58720266E-02
  0.61751777E-02  0.64013197E-02  0.65529218E-02  0.66329813E-02  0.66449648E-02
  0.65927500E-02  0.64805665E-02  0.63129378E-02  0.60946244E-02  0.58305676E-02
  0.55258358E-02  0.51855725E-02  0.48149468E-02  0.44191065E-02  0.40031342E-02
  0.35720064E-02  0.31305560E-02  0.26834382E-02  0.22350992E-02  0.17897495E-02
  0.13513398E-02  0.92354108E-03  0.50972764E-03  0.11296408E-03 -0.26400463E-03
 -0.61875983E-03 -0.94921253E-03 -0.12536040E-02 -0.15305033E-02 -0.17788023E-02
 -0.19977083E-02 -0.21867339E-02 -0.23456856E-02 -0.24746497E-02 -0.25739769E-02
 -0.26442657E-02 -0.26863441E-02 -0.27012506E-02 -0.26902142E-02 -0.26546340E-02
 -0.25960583E-02 -0.25161633E-02 -0.24167322E-02 -0.22996341E-02 -0.21668035E-02
 -0.20202199E-02 -0.18618884E-02 -0.16938208E-02 -0.15180180E-02 -0.13364525E-02
 -0.11510530E-02 -0.96368952E-03 -0.77615995E-03 -0.59017768E-03 -0.40736082E-03
 -0.22922256E-03 -0.57162954E-04  0.10753793E-03  0.26372553E-03  0.41037498E-03
  0.54659399E-03  0.67162443E-03  0.78484273E-03  0.88575910E-03  0.97401561E-03
  0.10493833E-02  0.11117583E-02  0.11611569E-02  0.11977101E-02  0.12216573E-02
  0.12333392E-02  0.12331903E-02  0.12217310E-02  0.11995592E-02  0.11673418E-02
  0.11258053E-02  0.10757276E-02  0.10179283E-02  0.95326014E-03  0.88260000E-03
  0.80684011E-03  0.72687974E-03  0.64361696E-03  0.55794092E-03  0.47072446E-03
  0.38281719E-03  0.29503906E-03  0.20817448E-03  0.12296697E-03  0.40114400E-04
 -0.39735184E-04 -0.11598715E-03 -0.18810321E-03 -0.25560382E-03 -0.31806992E-03
 -0.37514410E-03 -0.42653118E-03 -0.47199827E-03 -0.51137425E-03 -0.54454875E-03
 -0.57147069E-03 -0.59214632E-03 -0.60663685E-03 -0.61505574E-03 -0.61756566E-03
 -0.61437504E-03 -0.60573455E-03 -0.59193314E-03 -0.57329412E-03 -0.55017092E-03
 -0.52294290E-03 -0.49201099E-03 -0.45779337E-03 -0.42072120E-03 -0.38123432E-03
 -0.33977711E-03 -0.29679443E-03 -0.25272777E-03 -0.20801148E-03 -0.16306928E-03
 -0.11831099E-03 -0.74129487E-04 -0.30897873E-04  0.11032980E-04  0.51336675E-04
  0.89713227E-04  0.12589068E-03  0.15962647E-03  0.19070840E-03  0.21895542E-03
  0.24421805E-03  0.26637852E-03  0.28535066E-03  0.30107946E-03  0.31354049E-03
  0.32273896E-03  0.32870861E-03  0.33151043E-03  0.33123113E-03  0.32798146E-03
  0.32189444E-03  0.31312336E-03  0.30183975E-03  0.28823127E-03  0.27249947E-03
  0.25485761E-03  0.23552832E-03  0.21474141E-03  0.19273156E-03  0.16973617E-03
  0.14599315E-03  0.12173887E-03  0.97206139E-04  0.72622300E-04  0.48207449E-04
  0.24172759E-04  0.71894841E-06 -0.21965110E-04 -0.43703635E-04 -0.64335027E-04
 -0.83712796E-04 -0.10170633E-03 -0.11820151E-03 -0.13310115E-03 -0.14632527E-03
 -0.15781125E-03 -0.16751377E-03 -0.17540468E-03 -0.18147263E-03 -0.18572266E-03
 -0.18817562E-03 -0.18886744E-03 -0.18784838E-03 -0.18518209E-03 -0.18094464E-03
 -0.17522349E-03 -0.16811629E-03 -0.15972978E-03 -0.15017855E-03 -0.13958377E-03
 -0.12807196E-03 -0.11577369E-03 -0.10282236E-03 -0.89352922E-04 -0.75500647E-04
 -0.61399970E-04 -0.47183330E-04 -0.32980083E-04 -0.18915475E-04 -0.51096815E-05
  0.83230852E-05  0.21275381E-04  0.33647256E-04  0.45346898E-04  0.56291177E-04
  0.66406106E-04  0.75627207E-04  0.83899782E-04  0.91179092E-04  0.97430447E-04
  0.10262921E-03  0.10676069E-03  0.10982001E-03  0.11181181E-03  0.11274996E-03
  0.11265716E-03  0.11156446E-03  0.10951076E-03  0.10654223E-03  0.10271173E-03
  0.98078107E-04  0.92705528E-04  0.86662777E-04  0.80022511E-04  0.72860522E-04
  0.65254982E-04  0.57285702E-04  0.49033385E-04  0.40578904E-04  0.32002591E-04
  0.23383557E-04  0.14799037E-04  0.63237757E-05 -0.19705554E-05 -0.10015890E-04
 -0.17748259E-04 -0.25108228E-04 -0.32041290E-04 -0.38498196E-04 -0.44435241E-04
 -0.49814483E-04 -0.54603917E-04 -0.58777586E-04 -0.62315638E-04 -0.65204331E-04
 -0.67435984E-04 -0.69008873E-04 -0.69927089E-04 -0.70200337E-04 -0.69843701E-04
 -0.68877365E-04 -0.67326302E-04 -0.65219920E-04 -0.62591696E-04 -0.59478765E-04
 -0.55921508E-04 -0.51963107E-04 -0.47649098E-04 -0.43026911E-04 -0.38145409E-04
 -0.33054424E-04 -0.27804297E-04 -0.22445432E-04 -0.17027850E-04 -0.11600770E-04
 -0.62121989E-05 -0.90855010E-06  0.42657217E-05  0.92684531E-05  0.14060079E-04
  0.18603907E-04  0.22866366E-04  0.26817209E-04  0.30429699E-04  0.33680740E-04
  0.36550996E-04  0.39024949E-04  0.41090947E-04  0.42741199E-04  0.43971748E-04
  0.44782403E-04  0.45176650E-04  0.45161525E-04  0.44747465E-04  0.43948128E-04
  0.42780195E-04  0.41263152E-04  0.39419044E-04  0.37272225E-04  0.34849084E-04
  0.32177768E-04  0.29287895E-04  0.26210254E-04  0.22976517E-04  0.19618934E-04
  0.16170044E-04  0.12662384E-04  0.91282039E-05  0.55991971E-05  0.21062368E-05
 -0.13208718E-05 -0.46536241E-05 -0.78650319E-05 -0.10929821E-04 -0.13824610E-04
 -0.16528065E-04 -0.19021040E-04 -0.21286684E-04 -0.23310538E-04 -0.25080601E-04
 -0.26587373E-04 -0.27823883E-04 -0.28785684E-04 -0.29470833E-04 -0.29879850E-04
 -0.30015653E-04 -0.29883478E-04 -0.29490776E-04 -0.28847098E-04 -0.27963963E-04
 -0.26854710E-04 -0.25534340E-04 -0.24019348E-04 -0.22327543E-04 -0.20477865E-04
 -0.18490192E-04 -0.16385146E-04 -0.14183898E-04 -0.11907971E-04 -0.95790433E-05
 -0.72187582E-05 -0.48485367E-05 -0.24893965E-05 -0.16177814E-06  0.21146187E-05
  0.43209896E-05  0.64395684E-05  0.84537579E-05  0.10348247E-04  0.12109116E-04
  0.13723925E-04  0.15181786E-04  0.16473429E-04  0.17591240E-04  0.18529293E-04
  0.19283362E-04  0.19850922E-04  0.20231130E-04  0.20424800E-04  0.20434351E-04
  0.20263759E-04  0.19918482E-04  0.19405382E-04  0.18732636E-04  0.17909633E-04
  0.16946868E-04  0.15855824E-04  0.14648856E-04  0.13339059E-04  0.11940140E-04
  0.10466286E-04  0.89320320E-05  0.73521239E-05  0.57413879E-05  0.41145998E-05
  0.24863573E-05  0.87095755E-06 -0.71772106E-06 -0.22663300E-05 -0.37621555E-05
 -0.51932152E-05 -0.65483466E-05 -0.78172869E-05 -0.89907425E-05 -0.10060450E-04
 -0.11019224E-04 -0.11861000E-04 -0.12580860E-04 -0.13175055E-04 -0.13641009E-04
 -0.13977319E-04 -0.14183740E-04 -0.14261169E-04 -0.14211606E-04 -0.14038118E-04
 -0.13744789E-04 -0.13336664E-04 -0.12819684E-04 -0.12200618E-04 -0.11486983E-04
 -0.10686969E-04 -0.98093492E-05 -0.88633941E-05 -0.78587803E-05 -0.68054983E-05
 -0.57137589E-05 -0.45939004E-05 -0.34562962E-05 -0.23112636E-05 -0.11689758E-05
 -0.39376310E-07  0.10679029E-05  0.21436187E-05  0.31789891E-05  0.41657602E-05
  0.50962677E-05  0.59634911E-05  0.67611021E-05  0.74835055E-05  0.81258734E-05
  0.86841717E-05  0.91551792E-05  0.95364998E-05  0.98265666E-05  0.10024639E-04
  0.10130794E-04  0.10145907E-04  0.10071630E-04  0.99103640E-05  0.96652185E-05
  0.93399748E-05  0.89390385E-05  0.84673890E-05  0.79305253E-05  0.73344079E-05
  0.66853983E-05  0.59901959E-05  0.52557729E-05  0.44893091E-05  0.36981251E-05
  0.28896160E-05  0.20711861E-05  0.12501838E-05  0.43383940E-06 -0.37079557E-06
 -0.11569064E-05 -0.19179695E-05 -0.26478041E-05 -0.33406186E-05 -0.39910542E-05
 -0.45942229E-05 -0.51457409E-05 -0.56417574E-05 -0.60789782E-05 -0.64546830E-05
 -0.67667391E-05 -0.70136085E-05 -0.71943499E-05 -0.73086163E-05 -0.73566460E-05
 -0.73392506E-05 -0.72577965E-05 -0.71141832E-05 -0.69108164E-05 -0.66505781E-05
 -0.63367928E-05 -0.59731900E-05 -0.55638647E-05 -0.51132349E-05 -0.46259976E-05
 -0.41070824E-05 -0.35616046E-05 -0.29948175E-05 -0.24120642E-05 -0.18187294E-05
 -0.12201920E-05 -0.62177846E-06 -0.28717373E-07  0.55390395E-06  0.11211813E-05
  0.16684327E-05  0.21912353E-05  0.26854588E-05  0.31472963E-05  0.35732915E-05
  0.39603623E-05  0.43058209E-05  0.46073904E-05  0.48632166E-05  0.50718772E-05
  0.52323861E-05  0.53441941E-05  0.54071864E-05  0.54216752E-05  0.53883901E-05
  0.53084638E-05  0.51834157E-05  0.50151311E-05  0.48058394E-05  0.45580877E-05
  0.42747138E-05  0.39588160E-05  0.36137219E-05  0.32429552E-05  0.28502022E-05
  0.24392762E-05  0.20140829E-05  0.15785841E-05  0.11367632E-05  0.69258952E-06
  0.24998420E-06 -0.18721276E-06 -0.61527472E-06 -0.10306187E-05 -0.14298340E-05
 -0.18097092E-05 -0.21672559E-05 -0.24997319E-05 -0.28046597E-05 -0.30798443E-05
 -0.33233873E-05 -0.35336981E-05 -0.37095024E-05 -0.38498485E-05 -0.39541095E-05
 -0.40219833E-05 -0.40534902E-05 -0.40489667E-05 -0.40090576E-05 -0.39347051E-05
 -0.38271356E-05 -0.36878444E-05 -0.35185779E-05 -0.33213146E-05 -0.30982437E-05
 -0.28517428E-05 -0.25843541E-05 -0.22987593E-05 -0.19977543E-05 -0.16842228E-05
 -0.13611100E-05 -0.10313957E-05 -0.69806830E-06 -0.36409813E-06 -0.32412341E-07
  0.29412992E-06  0.61276127E-06  0.92082857E-06  0.12158142E-05  0.14953554E-05
  0.17572629E-05  0.19995364E-05  0.22203793E-05  0.24182108E-05  0.25916763E-05
  0.27396553E-05  0.28612674E-05  0.29558762E-05  0.30230907E-05  0.30627649E-05
  0.30749948E-05  0.30601142E-05  0.30186873E-05  0.29515008E-05  0.28595531E-05
  0.27440420E-05  0.26063517E-05  0.24480375E-05  0.22708094E-05  0.20765149E-05
  0.18671211E-05  0.16446949E-05  0.14113845E-05  0.11693984E-05  0.92098626E-06
  0.66841780E-06  0.41396337E-06  0.15987397E-06 -0.91637938E-07 -0.33841709E-06
 -0.57838321E-06 -0.80954793E-06 -0.10300306E-05 -0.12380730E-05 -0.14320526E-05
 -0.16104947E-05 -0.17720828E-05 -0.19156676E-05 -0.20402745E-05 -0.21451091E-05
 -0.22295617E-05 -0.22932094E-05 -0.23358170E-05 -0.23573363E-05 -0.23579032E-05
 -0.23378343E-05 -0.22976209E-05 -0.22379222E-05 -0.21595570E-05 -0.20634942E-05
 -0.19508419E-05 -0.18228359E-05 -0.16808269E-05 -0.15262669E-05 -0.13606951E-05
 -0.11857235E-05 -0.10030212E-05 -0.81429955E-06 -0.62129648E-06 -0.42576090E-06
 -0.22943743E-06 -0.34051281E-07  0.15870643E-06  0.34719289E-06  0.52982709E-06
  0.70510269E-06  0.87159996E-06  0.10279968E-05  0.11730789E-05  0.13057483E-05
  0.14250319E-05  0.15300873E-05  0.16202086E-05  0.16948303E-05  0.17535306E-05
  0.17960322E-05  0.18222031E-05  0.18320555E-05  0.18257435E-05  0.18035596E-05
  0.17659302E-05  0.17134102E-05  0.16466757E-05  0.15665169E-05  0.14738292E-05
  0.13696040E-05  0.12549189E-05  0.11309267E-05  0.99884457E-06  0.85994228E-06
  0.71553070E-06  0.56694961E-06  0.41555569E-06  0.26271051E-06  0.10976857E-06
 -0.41934291E-07 -0.19109231E-06 -0.33644065E-06 -0.47676586E-06 -0.61091563E-06
 -0.73780795E-06 -0.85643952E-06 -0.96589332E-06 -0.10653453E-05 -0.11540704E-05
 -0.12314471E-05 -0.12969616E-05 -0.13502109E-05 -0.13909043E-05 -0.14188646E-05
 -0.14340279E-05 -0.14364429E-05 -0.14262683E-05 -0.14037704E-05 -0.13693190E-05
 -0.13233826E-05 -0.12665233E-05 -0.11993905E-05 -0.11227136E-05 -0.10372952E-05
 -0.94400255E-06 -0.84375952E-06 -0.73753749E-06 -0.62634635E-06 -0.51122520E-06
 -0.39323289E-06 -0.27343856E-06 -0.15291219E-06 -0.32715278E-07  0.86108232E-07
  0.20254081E-06  0.31559980E-06  0.42434548E-06  0.52788867E-06  0.62539770E-06
  0.71610489E-06  0.79931233E-06  0.87439700E-06  0.94081512E-06  0.99810585E-06
  0.10458941E-05  0.10838926E-05  0.11119033E-05  0.11298178E-05  0.11376171E-05
  0.11353705E-05  0.11232337E-05  0.11014467E-05  0.10703300E-05  0.10302811E-05
  0.98176982E-06  0.92533348E-06  0.86157100E-06  0.79113709E-06  0.71473569E-06
  0.63311327E-06  0.54705172E-06  0.45736110E-06  0.36487220E-06  0.27042906E-06
  0.17488148E-06  0.79077503E-07 -0.16143904E-07 -0.10996001E-06 -0.20157127E-06
 -0.29020798E-06 -0.37513651E-06 -0.45566528E-06 -0.53115018E-06 -0.60099950E-06
 -0.66467845E-06 -0.72171301E-06 -0.77169327E-06 -0.81427611E-06 -0.84918736E-06
 -0.87622322E-06 -0.89525116E-06 -0.90621008E-06 -0.90910995E-06 -0.90403076E-06
 -0.89112095E-06 -0.87059517E-06 -0.84273158E-06 -0.80786863E-06 -0.76640128E-06
 -0.71877686E-06 -0.66549051E-06 -0.60708022E-06 -0.54412165E-06 -0.47722258E-06
 -0.40701728E-06 -0.33416058E-06 -0.25932195E-06 -0.18317952E-06 -0.10641402E-06
 -0.29702854E-07  0.46285736E-07  0.12089837E-06  0.19350204E-06  0.26348930E-06
  0.33028326E-06  0.39334221E-06  0.45216386E-06  0.50628922E-06  0.55530601E-06
  0.59885168E-06  0.63661594E-06  0.66834272E-06  0.69383181E-06  0.71293981E-06
  0.72558070E-06  0.73172584E-06  0.73140353E-06  0.72469799E-06  0.71174797E-06
  0.69274483E-06  0.66793023E-06  0.63759339E-06  0.60206798E-06  0.56172867E-06
  0.51698733E-06  0.46828903E-06  0.41610772E-06  0.36094177E-06  0.30330932E-06
  0.24374352E-06  0.18278776E-06  0.12099073E-06  0.58901691E-07 -0.29344014E-08
 -0.63981524E-07 -0.12371715E-06 -0.18163664E-06 -0.23725739E-06 -0.29012273E-06
 -0.33980565E-06 -0.38591208E-06 -0.42808390E-06 -0.46600170E-06 -0.49938697E-06
 -0.52800411E-06 -0.55166188E-06 -0.57021459E-06 -0.58356275E-06 -0.59165339E-06
 -0.59447999E-06 -0.59208190E-06 -0.58454350E-06 -0.57199289E-06 -0.55460024E-06
 -0.53257583E-06 -0.50616770E-06 -0.47565907E-06 -0.44136542E-06 -0.40363138E-06
 -0.36282736E-06 -0.31934606E-06 -0.27359874E-06 -0.22601145E-06 -0.17702113E-06
 -0.12707171E-06 -0.76610122E-07 -0.26082425E-07  0.24070092E-07  0.73414680E-07
  0.12153079E-06  0.16801359E-06  0.21247728E-06  0.25455824E-06  0.29391792E-06
 atomic pseudo charge-density
  0.11000000E+02  0.10985741E+02  0.10943178E+02  0.10872946E+02  0.10776079E+02
  0.10653963E+02  0.10508293E+02  0.10341008E+02  0.10154230E+02  0.99501962E+01
  0.97312004E+01  0.94995325E+01  0.92574302E+01  0.90070362E+01  0.87503661E+01
  0.84892841E+01  0.82254873E+01  0.79604974E+01  0.76956589E+01  0.74321422E+01
  0.71709513E+01  0.69129339E+01  0.66587939E+01  0.64091048E+01  0.61643241E+01
  0.59248068E+01  0.56908192E+01  0.54625516E+01  0.52401300E+01  0.50236268E+01
  0.48130703E+01  0.46084530E+01  0.44097394E+01  0.42168715E+01  0.40297749E+01
  0.38483626E+01  0.36725391E+01  0.35022033E+01  0.33372507E+01  0.31775757E+01
  0.30230725E+01  0.28736363E+01  0.27291645E+01  0.25895565E+01  0.24547144E+01
  0.23245430E+01  0.21989496E+01  0.20778443E+01  0.19611391E+01  0.18487485E+01
  0.17405885E+01  0.16365765E+01  0.15366312E+01  0.14406721E+01  0.13486194E+01
  0.12603933E+01  0.11759145E+01  0.10951031E+01  0.10178793E+01  0.94416269E+00
  0.87387221E+00  0.80692631E+00  0.74324272E+00  0.68273845E+00  0.62532982E+00
  0.57093248E+00  0.51946148E+00  0.47083130E+00  0.42495596E+00  0.38174914E+00
  0.34112423E+00  0.30299453E+00  0.26727330E+00  0.23387393E+00  0.20271010E+00
  0.17369585E+00  0.14674578E+00  0.12177515E+00  0.98700018E-01  0.77437375E-01
  0.57905268E-01  0.40022913E-01  0.23710817E-01  0.88908756E-02 -0.45135212E-02
 -0.16577398E-01 -0.27374111E-01 -0.36975264E-01 -0.45450646E-01 -0.52868162E-01
 -0.59293781E-01 -0.64791487E-01 -0.69423238E-01 -0.73248933E-01 -0.76326386E-01
 -0.78711303E-01 -0.80457274E-01 -0.81615760E-01 -0.82236093E-01 -0.82365481E-01
 -0.82049018E-01 -0.81329697E-01 -0.80248428E-01 -0.78844066E-01 -0.77153432E-01
 -0.75211351E-01 -0.73050683E-01 -0.70702362E-01 -0.68195439E-01 -0.65557126E-01
 -0.62812837E-01 -0.59986246E-01 -0.57099329E-01 -0.54172420E-01 -0.51224268E-01
 -0.48272083E-01 -0.45331600E-01 -0.42417134E-01 -0.39541634E-01 -0.36716744E-01
 -0.33952859E-01 -0.31259184E-01 -0.28643792E-01 -0.26113680E-01 -0.23674828E-01
 -0.21332254E-01 -0.19090071E-01 -0.16951540E-01 -0.14919127E-01 -0.12994554E-01
 -0.11178852E-01 -0.94724105E-02 -0.78750283E-02 -0.63859607E-02 -0.50039662E-02
 -0.37273520E-02 -0.25540176E-02 -0.14814966E-02 -0.50699702E-03  0.37255931E-03
  0.11605002E-02  0.18603673E-02  0.24758826E-02  0.30109162E-02  0.34694560E-02
  0.38555790E-02  0.41734245E-02  0.44271685E-02  0.46210006E-02  0.47591013E-02
  0.48456221E-02  0.48846667E-02  0.48802736E-02  0.48364004E-02  0.47569094E-02
  0.46455552E-02  0.45059729E-02  0.43416684E-02  0.41560092E-02  0.39522173E-02
  0.37333626E-02  0.35023581E-02  0.32619555E-02  0.30147427E-02  0.27631411E-02
  0.25094055E-02  0.22556230E-02  0.20037144E-02  0.17554352E-02  0.15123782E-02
  0.12759757E-02  0.10475038E-02  0.82808584E-03  0.61869698E-03  0.42016942E-03
  0.23319770E-03  0.58344396E-04 -0.10395373E-03 -0.25337945E-03 -0.38972849E-03
 -0.51290282E-03 -0.62290380E-03 -0.71982525E-03 -0.80384641E-03 -0.87522496E-03
 -0.93429002E-03 -0.98143518E-03 -0.10171117E-02 -0.10418216E-02 -0.10561114E-02
 -0.10605652E-02 -0.10557987E-02 -0.10424532E-02 -0.10211898E-02 -0.99268331E-03
 -0.95761770E-03 -0.91668050E-03 -0.87055825E-03 -0.81993195E-03 -0.76547296E-03
 -0.70783906E-03 -0.64767092E-03 -0.58558887E-03 -0.52218992E-03 -0.45804520E-03
 -0.39369757E-03 -0.32965966E-03 -0.26641215E-03 -0.20440234E-03 -0.14404303E-03
 -0.85711670E-04 -0.29749755E-04  0.23537487E-04  0.73881188E-04  0.12104869E-03
  0.16484315E-03  0.20510302E-03  0.24170122E-03  0.27454418E-03  0.30357078E-03
  0.32875105E-03  0.35008475E-03  0.36759986E-03  0.38135098E-03  0.39141757E-03
  0.39790216E-03  0.40092852E-03  0.40063971E-03  0.39719618E-03  0.39077380E-03
  0.38156186E-03  0.36976115E-03  0.35558199E-03  0.33924230E-03  0.32096574E-03
  0.30097990E-03  0.27951444E-03  0.25679948E-03  0.23306390E-03  0.20853381E-03
  0.18343108E-03  0.15797197E-03  0.13236586E-03  0.10681403E-03  0.81508663E-04
  0.56631816E-04  0.32354609E-04  0.88364589E-05 -0.13775546E-04 -0.35347173E-04
 -0.55757457E-04 -0.74899014E-04 -0.92678237E-04 -0.10901540E-03 -0.12384467E-03
 -0.13711400E-03 -0.14878495E-03 -0.15883241E-03 -0.16724427E-03 -0.17402099E-03
 -0.17917509E-03 -0.18273059E-03 -0.18472241E-03 -0.18519568E-03 -0.18420505E-03
 -0.18181391E-03 -0.17809363E-03 -0.17312272E-03 -0.16698601E-03 -0.15977383E-03
 -0.15158110E-03 -0.14250653E-03 -0.13265174E-03 -0.12212044E-03 -0.11101759E-03
 -0.99448599E-04 -0.87518542E-04 -0.75331426E-04 -0.62989463E-04 -0.50592394E-04
 -0.38236850E-04 -0.26015762E-04 -0.14017809E-04 -0.23269245E-05  0.89781561E-05
  0.19824290E-04  0.30144269E-04  0.39877113E-04  0.48968304E-04  0.57369968E-04
  0.65041005E-04  0.71947163E-04  0.78061068E-04  0.83362196E-04  0.87836800E-04
  0.91477789E-04  0.94284570E-04  0.96262839E-04  0.97424338E-04  0.97786577E-04
  0.97372524E-04  0.96210256E-04  0.94332600E-04  0.91776737E-04  0.88583789E-04
  0.84798401E-04  0.80468293E-04  0.75643818E-04  0.70377504E-04  0.64723602E-04
  0.58737630E-04  0.52475918E-04  0.45995174E-04  0.39352042E-04  0.32602688E-04
  0.25802393E-04  0.19005169E-04  0.12263394E-04  0.56274676E-05 -0.85450622E-06
 -0.71370122E-05 -0.13177389E-04 -0.18936064E-04 -0.24376765E-04 -0.29466692E-04
 -0.34176668E-04 -0.38481251E-04 -0.42358825E-04 -0.45791645E-04 -0.48765872E-04
 -0.51271558E-04 -0.53302621E-04 -0.54856775E-04 -0.55935448E-04 -0.56543665E-04
 -0.56689914E-04 -0.56385983E-04 -0.55646786E-04 -0.54490161E-04 -0.52936655E-04
 -0.51009302E-04 -0.48733373E-04 -0.46136130E-04 -0.43246565E-04 -0.40095133E-04
 -0.36713481E-04 -0.33134182E-04 -0.29390454E-04 -0.25515898E-04 -0.21544230E-04
 -0.17509021E-04 -0.13443446E-04 -0.93800389E-05 -0.53504663E-05 -0.13853044E-05
  0.24861650E-05  0.62361447E-05  0.98384962E-05  0.13268898E-04  0.16504983E-04
  0.19526465E-04  0.22315234E-04  0.24855448E-04  0.27133589E-04  0.29138518E-04
  0.30861491E-04  0.32296174E-04  0.33438628E-04  0.34287281E-04  0.34842883E-04
  0.35108437E-04  0.35089131E-04  0.34792234E-04  0.34226996E-04  0.33404525E-04
  0.32337660E-04  0.31040825E-04  0.29529882E-04  0.27821977E-04  0.25935370E-04
  0.23889274E-04  0.21703679E-04  0.19399181E-04  0.16996809E-04  0.14517850E-04
  0.11983680E-04  0.94155939E-05  0.68346462E-05  0.42614902E-05  0.17162289E-05
 -0.78172852E-06 -0.32138010E-05 -0.55623606E-05 -0.78108472E-05 -0.99438721E-05
 -0.11947311E-04 -0.13808385E-04 -0.15515727E-04 -0.17059441E-04 -0.18431141E-04
 -0.19623988E-04 -0.20632700E-04 -0.21453566E-04 -0.22084433E-04 -0.22524689E-04
 -0.22775237E-04 -0.22838446E-04 -0.22718109E-04 -0.22419371E-04 -0.21948668E-04
 -0.21313642E-04 -0.20523057E-04 -0.19586701E-04 -0.18515296E-04 -0.17320382E-04
 -0.16014217E-04 -0.14609662E-04 -0.13120067E-04 -0.11559156E-04 -0.99409099E-05
 -0.82794539E-05 -0.65889414E-05 -0.48834433E-05 -0.31768388E-05 -0.14827114E-05
  0.18575204E-06  0.18158560E-05  0.33954853E-05  0.49131880E-05  0.63582508E-05
  0.77207676E-05  0.89917002E-05  0.10162930E-04  0.11227304E-04  0.12178668E-04
  0.13011896E-04  0.13722906E-04  0.14308673E-04  0.14767229E-04  0.15097655E-04
  0.15300067E-04  0.15375595E-04  0.15326348E-04  0.15155383E-04  0.14866655E-04
  0.14464971E-04  0.13955931E-04  0.13345870E-04  0.12641792E-04  0.11851299E-04
  0.10982520E-04  0.10044034E-04  0.90447976E-05  0.79940593E-05  0.69012857E-05
  0.57760801E-05  0.46281037E-05  0.34669982E-05  0.23023099E-05  0.11434158E-05
 -0.54668263E-09 -0.11207478E-05 -0.22087286E-05 -0.32564606E-05 -0.42564008E-05
 -0.52015411E-05 -0.60854535E-05 -0.69023288E-05 -0.76470106E-05 -0.83150225E-05
 -0.89025900E-05 -0.94066563E-05 -0.98248922E-05 -0.10155700E-04 -0.10398209E-04
 -0.10552274E-04 -0.10618454E-04 -0.10598000E-04 -0.10492826E-04 -0.10305485E-04
 -0.10039134E-04 -0.96974954E-05 -0.92848189E-05 -0.88058350E-05 -0.82657089E-05
 -0.76699902E-05 -0.70245616E-05 -0.63355852E-05 -0.56094479E-05 -0.48527063E-05
 -0.40720309E-05 -0.32741512E-05 -0.24658004E-05 -0.16536622E-05 -0.84431838E-06
 -0.44198305E-07  0.74046907E-06  0.15037010E-05  0.22398038E-05  0.29434123E-05
  0.36095265E-05  0.42335439E-05  0.48112888E-05  0.53390369E-05  0.58135363E-05
  0.62320241E-05  0.65922392E-05  0.68924303E-05  0.71313600E-05  0.73083048E-05
  0.74230509E-05  0.74758858E-05  0.74675865E-05  0.73994039E-05  0.72730434E-05
  0.70906431E-05  0.68547474E-05  0.65682800E-05  0.62345125E-05  0.58570317E-05
  0.54397054E-05  0.49866454E-05  0.45021708E-05  0.39907687E-05  0.34570561E-05
  0.29057397E-05  0.23415772E-05  0.17693379E-05  0.11937650E-05  0.61953748E-06
  0.51234648E-07 -0.50669893E-06 -0.10499862E-05 -0.15745485E-05 -0.20765347E-05
 -0.25523472E-05 -0.29986659E-05 -0.34124699E-05 -0.37910553E-05 -0.41320513E-05
 -0.44334325E-05 -0.46935287E-05 -0.49110314E-05 -0.50849978E-05 -0.52148508E-05
 -0.53003772E-05 -0.53417224E-05 -0.53393825E-05 -0.52941937E-05 -0.52073191E-05
 -0.50802339E-05 -0.49147068E-05 -0.47127813E-05 -0.44767535E-05 -0.42091497E-05
 -0.39127013E-05 -0.35903197E-05 -0.32450693E-05 -0.28801405E-05 -0.24988215E-05
 -0.21044706E-05 -0.17004880E-05 -0.12902877E-05 -0.87727005E-06 -0.46479516E-06
 -0.56156405E-07  0.34544439E-06  0.73692084E-06  0.11153245E-05  0.14778659E-05
  0.18219336E-05  0.21451122E-05  0.24451976E-05  0.27202108E-05  0.29684094E-05
  0.31882975E-05  0.33786326E-05  0.35384312E-05  0.36669718E-05  0.37637957E-05
  0.38287058E-05  0.38617635E-05  0.38632835E-05  0.38338263E-05  0.37741897E-05
  0.36853977E-05  0.35686883E-05  0.34254999E-05  0.32574556E-05  0.30663478E-05
  0.28541200E-05  0.26228488E-05  0.23747252E-05  0.21120348E-05  0.18371378E-05
  0.15524492E-05  0.12604182E-05  0.96350825E-06  0.66417721E-06  0.36485787E-06
  0.67939018E-07 -0.22425276E-06 -0.50947043E-06 -0.78556298E-06 -0.10504908E-05
 -0.13023397E-05 -0.15393342E-05 -0.17598489E-05 -0.19624186E-05 -0.21457475E-05
 -0.23087159E-05 -0.24503862E-05 -0.25700070E-05 -0.26670158E-05 -0.27410401E-05
 -0.27918966E-05 -0.28195897E-05 -0.28243078E-05 -0.28064187E-05 -0.27664632E-05
 -0.27051480E-05 -0.26233368E-05 -0.25220408E-05 -0.24024083E-05 -0.22657126E-05
 -0.21133401E-05 -0.19467768E-05 -0.17675956E-05 -0.15774412E-05 -0.13780166E-05
 -0.11710684E-05 -0.95837176E-06 -0.74171643E-06 -0.52289191E-06 -0.30367346E-06
 -0.85808271E-07  0.12899789E-06  0.33909338E-06  0.54289285E-06  0.73888854E-06
  0.92566089E-06  0.11018881E-05  0.12663551E-05  0.14179608E-05  0.15557253E-05
  0.16787951E-05  0.17864479E-05  0.18780957E-05  0.19532873E-05  0.20117095E-05
  0.20531868E-05  0.20776809E-05  0.20852882E-05  0.20762367E-05  0.20508822E-05
  0.20097028E-05  0.19532936E-05  0.18823593E-05  0.17977073E-05  0.17002393E-05
  0.15909425E-05  0.14708806E-05  0.13411837E-05  0.12030386E-05  0.10576786E-05
  0.90637240E-06  0.75041411E-06  0.59111234E-06  0.42977973E-06  0.26772260E-06
  0.10623074E-06 -0.53432389E-07 -0.21003915E-06 -0.36240673E-06 -0.50940566E-06
 -0.64996776E-06 -0.78309346E-06 -0.90785846E-06 -0.10234197E-05 -0.11290205E-05
 -0.12239953E-05 -0.13077727E-05 -0.13798791E-05 -0.14399402E-05 -0.14876824E-05
 -0.15229333E-05 -0.15456211E-05 -0.15557739E-05 -0.15535173E-05 -0.15390720E-05
 -0.15127506E-05 -0.14749534E-05 -0.14261638E-05 -0.13669433E-05 -0.12979257E-05
 -0.12198109E-05 -0.11333586E-05 -0.10393810E-05 -0.93873586E-06 -0.83231888E-06
 -0.72105632E-06 -0.60589710E-06 -0.48780509E-06 -0.36775138E-06 -0.24670657E-06
 -0.12563325E-06 -0.54786430E-08  0.11283252E-06  0.22840480E-06  0.34037856E-06
  0.44793602E-06  0.55030696E-06  0.64677391E-06  0.73667685E-06  0.81941742E-06
  0.89446255E-06  0.96134754E-06  0.10196785E-05  0.10691345E-05  0.11094684E-05
  0.11405081E-05  0.11621564E-05  0.11743904E-05  0.11772608E-05  0.11708903E-05
  0.11554713E-05  0.11312632E-05  0.10985898E-05  0.10578354E-05  0.10094408E-05
  0.95389947E-06  0.89175234E-06  0.82358324E-06  0.75001359E-06  0.67169705E-06
  0.58931395E-06  0.50356566E-06  0.41516884E-06  0.32484964E-06  0.23333805E-06
  0.14136212E-06  0.49642466E-07 -0.41113216E-07 -0.13021537E-06 -0.21699763E-06
 -0.30082156E-06 -0.38108115E-06 -0.45720700E-06 -0.52867012E-06 -0.59498540E-06
 -0.65571464E-06 -0.71046928E-06 -0.75891255E-06 -0.80076134E-06 -0.83578757E-06
 -0.86381908E-06 -0.88474017E-06 -0.89849161E-06 -0.90507028E-06 -0.90452835E-06
 -0.89697208E-06 -0.88256020E-06 -0.86150192E-06 -0.83405459E-06 -0.80052105E-06
 -0.76124659E-06 -0.71661574E-06 -0.66704876E-06 -0.61299783E-06 -0.55494323E-06
 -0.49338919E-06 -0.42885970E-06 -0.36189426E-06 -0.29304347E-06 -0.22286470E-06
 -0.15191774E-06 -0.80760465E-07 -0.99446014E-08  0.59988384E-07  0.12851129E-06
  0.19511499E-06  0.25931210E-06  0.32064036E-06  0.37866583E-06  0.43298583E-06
  0.48323153E-06  0.52907036E-06  0.57020801E-06  0.60639017E-06  0.63740394E-06
  0.66307886E-06  0.68328768E-06  0.69794672E-06  0.70701594E-06  0.71049866E-06
  0.70844097E-06  0.70093082E-06  0.68809676E-06  0.67010648E-06  0.64716498E-06
  0.61951257E-06  0.58742251E-06  0.55119856E-06  0.51117227E-06  0.46770006E-06
  0.42116020E-06  0.37194967E-06  0.32048088E-06  0.26717832E-06  0.21247519E-06
  0.15680998E-06  0.10062307E-06  0.44353322E-07 -0.11565195E-07 -0.66706498E-07
 -0.12065582E-06 -0.17301262E-06 -0.22339348E-06 -0.27143481E-06 -0.31679536E-06
 -0.35915857E-06 -0.39823467E-06 -0.43376254E-06 -0.46551141E-06 -0.49328219E-06
 -0.51690865E-06 -0.53625827E-06 -0.55123285E-06 -0.56176887E-06 -0.56783754E-06
 -0.56944464E-06 -0.56663004E-06 -0.55946702E-06 -0.54806131E-06 -0.53254994E-06
 -0.51309978E-06 -0.48990599E-06 -0.46319017E-06 -0.43319839E-06 -0.40019903E-06
 -0.36448047E-06 -0.32634871E-06 -0.28612478E-06 -0.24414219E-06 -0.20074418E-06
 -0.15628105E-06 -0.11110738E-06 -0.65579272E-07 -0.20051642E-07  0.25124507E-07
  0.69604710E-07  0.11305360E-06  0.15514740E-06  0.19557621E-06  0.23404631E-06
  0.27028217E-06  0.30402841E-06  0.33505150E-06  0.36314135E-06  0.38811265E-06
  0.40980604E-06  0.42808904E-06  0.44285683E-06  0.45403270E-06  0.46156839E-06
  0.46544416E-06  0.46566863E-06  0.46227844E-06  0.45533767E-06  0.44493708E-06
  0.43119311E-06  0.41424678E-06  0.39426232E-06  0.37142568E-06  0.34594289E-06
  0.31803830E-06  0.28795263E-06  0.25594101E-06  0.22227085E-06  0.18721966E-06
  0.15107284E-06  0.11412142E-06  0.76659722E-07  0.38983121E-07  0.13857318E-08
 -0.35841827E-07 -0.72414638E-07 -0.10805562E-06 -0.14249760E-06 -0.17548525E-06
 -0.20677695E-06 -0.23614655E-06 -0.26338491E-06 -0.28830142E-06 -0.31072525E-06
 -0.33050648E-06 -0.34751712E-06 -0.36165181E-06 -0.37282851E-06 -0.38098887E-06
 -0.38609847E-06 -0.38814687E-06 -0.38714747E-06 -0.38313722E-06 -0.37617604E-06
 -0.36634625E-06 -0.35375163E-06 -0.33851651E-06 -0.32078454E-06 -0.30071745E-06
 -0.27849365E-06 -0.25430662E-06 -0.22836336E-06 -0.20088260E-06 -0.17209304E-06
 -0.14223145E-06 -0.11154077E-06 -0.80268206E-07 -0.48663215E-07 -0.16975585E-07
  0.14546521E-07  0.45658476E-07  0.76121055E-07  0.10570225E-06  0.13417902E-06
  0.16133893E-06  0.18698170E-06  0.21092069E-06  0.23298422E-06  0.25301676E-06
  0.27088003E-06  0.28645388E-06  0.29963715E-06  0.31034819E-06  0.31852544E-06
  0.32412764E-06  0.32713407E-06  0.32754445E-06  0.32537884E-06  0.32067728E-06
  0.31349928E-06  0.30392327E-06  0.29204575E-06  0.27798043E-06  0.26185716E-06
  0.24382081E-06  0.22403001E-06  0.20265577E-06  0.17988003E-06  0.15589419E-06
  0.13089746E-06  0.10509532E-06  0.78697758E-07  0.51917658E-07  0.24969066E-07
 -0.19344849E-08 -0.28581655E-07 -0.54764939E-07 -0.80282262E-07 -0.10493852E-06
 -0.12854708E-06 -0.15093112E-06 -0.17192501E-06 -0.19137547E-06 -0.20914267E-06
 -0.22510126E-06 -0.23914119E-06 -0.25116848E-06 -0.26110581E-06 -0.26889297E-06
 -0.27448723E-06 -0.27786351E-06 -0.27901443E-06 -0.27795022E-06 -0.27469849E-06
 -0.26930388E-06 -0.26182757E-06 -0.25234662E-06 -0.24095331E-06 -0.22775418E-06
 -0.21286919E-06 -0.19643055E-06 -0.17858168E-06 -0.15947590E-06 -0.13927520E-06
 -0.11814883E-06 -0.96271984E-07 -0.73824277E-07 -0.50988355E-07 -0.27948394E-07
 -0.48886395E-08  0.18008055E-07  0.40561663E-07  0.62596392E-07  0.83942037E-07
  0.10443529E-06  0.12392096E-06  0.14225318E-06  0.15929644E-06  0.17492660E-06
   15.1178079086314      T
 Non local Part
           1           2   1.35012272817262     
  -14.0510770228696       -6.53766578364722       -6.53766578364722     
   12.3365569883628     
 Reciprocal Space Part
  0.00000000E+00  0.30714524E+00  0.61259248E+00  0.91464987E+00  0.12116380E+01
  0.15018966E+01  0.17837919E+01  0.20557244E+01  0.23161379E+01  0.25635286E+01
  0.27964561E+01  0.30135544E+01  0.32135438E+01  0.33952439E+01  0.35575860E+01
  0.36996270E+01  0.38205617E+01  0.39197359E+01  0.39966582E+01  0.40510103E+01
  0.40826571E+01  0.40916532E+01  0.40782490E+01  0.40428934E+01  0.39862339E+01
  0.39091146E+01  0.38125701E+01  0.36978172E+01  0.35662434E+01  0.34193920E+01
  0.32589451E+01  0.30867030E+01  0.29045626E+01  0.27144924E+01  0.25185075E+01
  0.23186418E+01  0.21169212E+01  0.19153359E+01  0.17158132E+01  0.15201917E+01
  0.13301963E+01  0.11474164E+01  0.97328513E+00  0.80906246E+00  0.65582125E+00
  0.51443655E+00  0.38557876E+00  0.26971044E+00  0.16708698E+00  0.77760871E-01
  0.15896513E-02 -0.61752861E-01 -0.11276228E+00 -0.15208667E+00 -0.18050731E+00
 -0.19891762E+00 -0.20830082E+00 -0.20970678E+00 -0.20422851E+00 -0.19297905E+00
 -0.17706891E+00 -0.15758483E+00 -0.13557012E+00 -0.11200694E+00 -0.87800999E-01
 -0.63768673E-01 -0.40626927E-01 -0.18986047E-01  0.65477204E-03  0.17909009E-01
  0.32501693E-01  0.44265734E-01  0.53135938E-01  0.59140990E-01  0.62393698E-01
  0.63079878E-01  0.61446207E-01  0.57787439E-01  0.52433351E-01  0.45735771E-01
  0.38056039E-01  0.29753191E-01  0.21173164E-01  0.12639231E-01  0.44438533E-02
 -0.31578971E-02 -0.99532938E-02 -0.15775232E-01 -0.20503859E-01 -0.24066611E-01
 -0.26436782E-01 -0.27630743E-01 -0.27704011E-01 -0.26746351E-01 -0.24876137E-01
 -0.22234190E-01 -0.18977332E-01 -0.15271866E-01 -0.11287208E-01 -0.71898558E-02
 Real Space Part
  0.00000000E+00  0.22242470E+00  0.44435226E+00  0.66528672E+00  0.88473449E+00
  0.11022056E+01  0.13172146E+01  0.15292824E+01  0.17379365E+01  0.19427130E+01
  0.21431574E+01  0.23388254E+01  0.25292849E+01  0.27141163E+01  0.28929139E+01
  0.30652872E+01  0.32308617E+01  0.33892798E+01  0.35402023E+01  0.36833092E+01
  0.38183002E+01  0.39448963E+01  0.40628404E+01  0.41718980E+01  0.42718583E+01
  0.43625346E+01  0.44437654E+01  0.45154147E+01  0.45773729E+01  0.46295569E+01
  0.46719110E+01  0.47044071E+01  0.47270449E+01  0.47398523E+01  0.47428854E+01
  0.47362288E+01  0.47199953E+01  0.46943259E+01  0.46593898E+01  0.46153836E+01
  0.45625314E+01  0.45010841E+01  0.44313187E+01  0.43535377E+01  0.42680685E+01
  0.41752621E+01  0.40754923E+01  0.39691546E+01  0.38566650E+01  0.37384588E+01
  0.36149889E+01  0.34867247E+01  0.33541501E+01  0.32177625E+01  0.30780704E+01
  0.29355918E+01  0.27908528E+01  0.26443851E+01  0.24967243E+01  0.23484078E+01
  0.21999727E+01  0.20519542E+01  0.19048827E+01  0.17592823E+01  0.16156686E+01
  0.14745463E+01  0.13364076E+01  0.12017297E+01  0.10709730E+01  0.94457901E+00
  0.82296875E+00  0.70654051E+00  0.59566829E+00  0.49070009E+00  0.39195631E+00
  0.29972827E+00  0.21427683E+00  0.13583118E+00  0.64587655E-01  0.70880771E-03
 -0.55677455E-01 -0.10447860E+00 -0.14563790E+00 -0.17913503E+00 -0.20498656E+00
 -0.22324259E+00 -0.23396766E+00 -0.23790176E+00 -0.23721669E+00 -0.23218994E+00
 -0.22283752E+00 -0.20921884E+00 -0.19144255E+00 -0.16965741E+00 -0.14405619E+00
 -0.11484258E+00 -0.82257690E-01 -0.47353493E-01 -0.58931152E-02  0.51656983E-14
 Reciprocal Space Part
  0.00000000E+00  0.66885887E+00  0.13247581E+01  0.19550084E+01  0.25474557E+01
  0.30907325E+01  0.35744925E+01  0.39896212E+01  0.43284189E+01  0.45847512E+01
  0.47541645E+01  0.48339639E+01  0.48232516E+01  0.47229259E+01  0.45356406E+01
  0.42657267E+01  0.39190785E+01  0.35030066E+01  0.30260623E+01  0.24978382E+01
  0.19287481E+01  0.13297944E+01  0.71232563E+00  0.87792551E-01 -0.53249381E+00
 -0.11375950E+01 -0.17171644E+01 -0.22616480E+01 -0.27624627E+01 -0.32121480E+01
 -0.36044882E+01 -0.39346045E+01 -0.41990131E+01 -0.43956512E+01 -0.45238700E+01
 -0.45843960E+01 -0.45792631E+01 -0.45117173E+01 -0.43860970E+01 -0.42076938E+01
 -0.39825966E+01 -0.37175233E+01 -0.34196458E+01 -0.30964110E+01 -0.27553643E+01
 -0.24039774E+01 -0.20494871E+01 -0.16987457E+01 -0.13580886E+01 -0.10332207E+01
 -0.72912267E+00 -0.44998015E+00 -0.19913543E+00  0.20937885E-01  0.20863756E+00
  0.36321407E+00  0.48473192E+00  0.57401307E+00  0.63256476E+00  0.66249446E+00
  0.66641485E+00  0.64734179E+00  0.60858841E+00  0.55365824E+00  0.48614037E+00
  0.40960932E+00  0.32753190E+00  0.24318334E+00  0.15957440E+00  0.79390607E-01
  0.49448534E-02 -0.61856390E-01 -0.11953303E+00 -0.16703779E+00 -0.20374987E+00
 -0.22945676E+00 -0.24432546E+00 -0.24886481E+00 -0.24388034E+00 -0.23042374E+00
 -0.20973859E+00 -0.18320435E+00 -0.15228037E+00 -0.11845160E+00 -0.83177630E-01
 -0.47846262E-01 -0.13732934E-01  0.18033286E-01  0.46496417E-01  0.70892664E-01
  0.90661788E-01  0.10545092E+00  0.11511116E+00  0.11968761E+00  0.11940354E+00
  0.11463963E+00  0.10590931E+00  0.93831220E-01  0.79099986E-01  0.62456317E-01
 Real Space Part
  0.00000000E+00 -0.38439033E+00 -0.76753992E+00 -0.11482121E+01 -0.15251785E+01
 -0.18972228E+01 -0.22631451E+01 -0.26217656E+01 -0.29719290E+01 -0.33125077E+01
 -0.36424063E+01 -0.39605648E+01 -0.42659624E+01 -0.45576211E+01 -0.48346091E+01
 -0.50960438E+01 -0.53410952E+01 -0.55689890E+01 -0.57790091E+01 -0.59705004E+01
 -0.61428714E+01 -0.62955964E+01 -0.64282176E+01 -0.65403470E+01 -0.66316681E+01
 -0.67019375E+01 -0.67509858E+01 -0.67787190E+01 -0.67851189E+01 -0.67702437E+01
 -0.67342283E+01 -0.66772844E+01 -0.65996997E+01 -0.65018379E+01 -0.63841376E+01
 -0.62471110E+01 -0.60913430E+01 -0.59174890E+01 -0.57262731E+01 -0.55184860E+01
 -0.52949824E+01 -0.50566781E+01 -0.48045472E+01 -0.45396186E+01 -0.42629726E+01
 -0.39757369E+01 -0.36790829E+01 -0.33742210E+01 -0.30623966E+01 -0.27448854E+01
 -0.24229883E+01 -0.20980266E+01 -0.17713369E+01 -0.14442659E+01 -0.11181650E+01
 -0.79438476E+00 -0.47426954E+00 -0.15915191E+00  0.14965293E+00  0.45085267E+00
  0.74318346E+00  0.10254154E+01  0.12963577E+01  0.15548646E+01  0.17998399E+01
  0.20302421E+01  0.22450896E+01  0.24434651E+01  0.26245201E+01  0.27874787E+01
  0.29316424E+01  0.30563928E+01  0.31611953E+01  0.32456024E+01  0.33092555E+01
  0.33518881E+01  0.33733271E+01  0.33734943E+01  0.33524080E+01  0.33101827E+01
  0.32470304E+01  0.31632598E+01  0.30592755E+01  0.29355776E+01  0.27927618E+01
  0.26315020E+01  0.24524652E+01  0.22592170E+01  0.20617146E+01  0.18616632E+01
  0.16594969E+01  0.14557131E+01  0.12509026E+01  0.10457149E+01  0.84088181E+00
  0.63706765E+00  0.43500135E+00  0.23912677E+00  0.28867593E-01 -0.24910785E-13
 Non local Part
           2           2   1.35012272817262     
  -2.06826606117738       -2.23746590444290       -2.23746590444290     
  -2.34813761116155     
 Reciprocal Space Part
  0.00000000E+00  0.29946601E+00  0.11866347E+01  0.26281819E+01  0.45697695E+01
  0.69378090E+01  0.96418531E+01  0.12577541E+02  0.15630004E+02  0.18677631E+02
  0.21596065E+02  0.24262318E+02  0.26558870E+02  0.28377621E+02  0.29623581E+02
  0.30218170E+02  0.30102035E+02  0.29237289E+02  0.27609102E+02  0.25226592E+02
  0.22122979E+02  0.18355013E+02  0.14001664E+02  0.91621335E+01  0.39532288E+01
 -0.14938110E+01 -0.70369535E+01 -0.12527363E+02 -0.17813627E+02 -0.22746089E+02
 -0.27181170E+02 -0.30985539E+02 -0.34040011E+02 -0.36243074E+02 -0.37513913E+02
 -0.37794866E+02 -0.37053236E+02 -0.35282391E+02 -0.32502146E+02 -0.28758395E+02
 -0.24122019E+02 -0.18687096E+02 -0.12568469E+02 -0.58987490E+01  0.11751731E+01
  0.84959870E+01  0.15900096E+02  0.23221898E+02  0.30298098E+02  0.36971920E+02
  0.43097119E+02  0.48541654E+02  0.53190959E+02  0.56950689E+02  0.59748898E+02
  0.61537576E+02  0.62293527E+02  0.62018561E+02  0.60739013E+02  0.58504606E+02
  0.55386711E+02  0.51476053E+02  0.46879949E+02  0.41719153E+02  0.36124411E+02
  0.30232831E+02  0.24184164E+02  0.18117115E+02  0.12165780E+02  0.64562999E+01
  0.11038413E+01 -0.37900469E+01 -0.81396146E+01 -0.11876591E+02 -0.14951328E+02
 -0.17333389E+02 -0.19011589E+02 -0.19993489E+02 -0.20304393E+02 -0.19985879E+02
 -0.19093932E+02 -0.17696733E+02 -0.15872202E+02 -0.13705350E+02 -0.11285546E+02
 -0.87037665E+01 -0.60499209E+01 -0.34103206E+01 -0.86536733E+00  0.15124824E+01
  0.36604248E+01  0.55266509E+01  0.70712970E+01  0.82669910E+01  0.90989946E+01
  0.95649540E+01  0.96742824E+01  0.94472112E+01  0.89135511E+01  0.81112159E+01
 Real Space Part
  0.00000000E+00  0.27676362E+00  0.11045222E+01  0.24756970E+01  0.43777178E+01
  0.67931133E+01  0.96996379E+01  0.13070433E+02  0.16874225E+02  0.21075549E+02
  0.25635019E+02  0.30509610E+02  0.35652988E+02  0.41015855E+02  0.46546324E+02
  0.52190319E+02  0.57891996E+02  0.63594177E+02  0.69238812E+02  0.74767446E+02
  0.80121698E+02  0.85243749E+02  0.90076838E+02  0.94565755E+02  0.98657328E+02
  0.10230092E+03  0.10544889E+03  0.10805707E+03  0.11008522E+03  0.11149743E+03
  0.11226255E+03  0.11235453E+03  0.11175281E+03  0.11044259E+03  0.10841511E+03
  0.10566789E+03  0.10220489E+03  0.98036645E+02  0.93180373E+02  0.87659976E+02
  0.81506019E+02  0.74755649E+02  0.67452446E+02  0.59646215E+02  0.51392726E+02
  0.42753380E+02  0.33794820E+02  0.24588478E+02  0.15210070E+02  0.57390235E+01
 -0.37421479E+01 -0.13148517E+02 -0.22393478E+02 -0.31389510E+02 -0.40049002E+02
 -0.48285101E+02 -0.56012592E+02 -0.63148815E+02 -0.69614593E+02 -0.75335169E+02
 -0.80241161E+02 -0.84269509E+02 -0.87364410E+02 -0.89478241E+02 -0.90572457E+02
 -0.90618455E+02 -0.89598393E+02 -0.87505964E+02 -0.84347108E+02 -0.80140663E+02
 -0.74918934E+02 -0.68728196E+02 -0.61629086E+02 -0.53696905E+02 -0.45021827E+02
 -0.35709018E+02 -0.25878580E+02 -0.15665417E+02 -0.52190321E+01  0.52969406E+01
  0.15705187E+02  0.25815356E+02  0.35424885E+02  0.44319815E+02  0.52276115E+02
  0.59059357E+02  0.64419273E+02  0.68336930E+02  0.71355350E+02  0.73344834E+02
  0.74058768E+02  0.73246813E+02  0.70659723E+02  0.66048975E+02  0.59171768E+02
  0.49776980E+02  0.37622718E+02  0.22888864E+02  0.29500859E+01 -0.27173207E-11
 Reciprocal Space Part
  0.00000000E+00 -0.23324742E+00 -0.92399487E+00 -0.20455522E+01 -0.35544074E+01
 -0.53916524E+01 -0.74849156E+01 -0.97507420E+01 -0.12097345E+02 -0.14427646E+02
 -0.16642501E+02 -0.18644024E+02 -0.20338885E+02 -0.21641502E+02 -0.22477006E+02
 -0.22783893E+02 -0.22516283E+02 -0.21645707E+02 -0.20162372E+02 -0.18075845E+02
 -0.15415163E+02 -0.12228322E+02 -0.85812020E+01 -0.45559130E+01 -0.24864855E+00
  0.42329167E+01  0.87725978E+01  0.13248954E+02  0.17538728E+02  0.21520377E+02
  0.25077573E+02  0.28102594E+02  0.30499478E+02  0.32186875E+02  0.33100484E+02
  0.33195032E+02  0.32445711E+02  0.30849050E+02  0.28423191E+02  0.25207554E+02
  0.21261918E+02  0.16664929E+02  0.11512089E+02  0.59132815E+01 -0.10093831E-01
 -0.61282902E+01 -0.12306602E+02 -0.18408873E+02 -0.24301015E+02 -0.29854459E+02
 -0.34949422E+02 -0.39477906E+02 -0.43346355E+02 -0.46477892E+02 -0.48814079E+02
 -0.50316161E+02 -0.50965760E+02 -0.50765019E+02 -0.49736185E+02 -0.47920663E+02
 -0.45377577E+02 -0.42181875E+02 -0.38422058E+02 -0.34197584E+02 -0.29616042E+02
 -0.24790172E+02 -0.19834818E+02 -0.14863905E+02 -0.99875197E+01 -0.53091794E+01
 -0.92335485E+00  0.30866840E+01  0.66506505E+01  0.97126103E+01  0.12231911E+02
  0.14183660E+02  0.15558744E+02  0.16363417E+02  0.16618466E+02  0.16358008E+02
  0.15627951E+02  0.14484186E+02  0.12990568E+02  0.11216745E+02  0.92359221E+01
  0.71226077E+01  0.49504221E+01  0.27900280E+01  0.70723819E+00 -0.12386489E+01
 -0.29962454E+01 -0.45231704E+01 -0.57868260E+01 -0.67648421E+01 -0.74451905E+01
 -0.78259789E+01 -0.79149439E+01 -0.77286724E+01 -0.72915863E+01 -0.66347339E+01
 Real Space Part
  0.00000000E+00 -0.22277952E+00 -0.88906273E+00 -0.19926984E+01 -0.35234840E+01
 -0.54672396E+01 -0.78059111E+01 -0.10517702E+02 -0.13577232E+02 -0.16955726E+02
 -0.20621224E+02 -0.24538822E+02 -0.28670931E+02 -0.32977565E+02 -0.37416643E+02
 -0.41944316E+02 -0.46515306E+02 -0.51083267E+02 -0.55601154E+02 -0.60021607E+02
 -0.64297338E+02 -0.68381533E+02 -0.72228250E+02 -0.75792822E+02 -0.79032255E+02
 -0.81905629E+02 -0.84374479E+02 -0.86403178E+02 -0.87959299E+02 -0.89013957E+02
 -0.89542145E+02 -0.89523031E+02 -0.88940239E+02 -0.87782098E+02 -0.86041860E+02
 -0.83717884E+02 -0.80813780E+02 -0.77338517E+02 -0.73306489E+02 -0.68737535E+02
 -0.63656914E+02 -0.58095232E+02 -0.52088327E+02 -0.45677093E+02 -0.38907264E+02
 -0.31829145E+02 -0.24497291E+02 -0.16970136E+02 -0.93095791E+01 -0.15805172E+01
  0.61496669E+01  0.13811653E+02  0.21334786E+02  0.28647697E+02  0.35678978E+02
  0.42357874E+02  0.48615002E+02  0.54383099E+02  0.59597775E+02  0.64198284E+02
  0.68128296E+02  0.71336673E+02  0.73778228E+02  0.75414480E+02  0.76214383E+02
  0.76155028E+02  0.75222314E+02  0.73411573E+02  0.70728152E+02  0.67187938E+02
  0.62817825E+02  0.57656118E+02  0.51752851E+02  0.45170030E+02  0.37981803E+02
  0.30274552E+02  0.22146844E+02  0.13709319E+02  0.50845223E+01 -0.35934819E+01
 -0.12179481E+02 -0.20517643E+02 -0.28442192E+02 -0.35778075E+02 -0.42342050E+02
 -0.47942415E+02 -0.52374562E+02 -0.55623167E+02 -0.58132523E+02 -0.59796551E+02
 -0.60413594E+02 -0.59779011E+02 -0.57689118E+02 -0.53940876E+02 -0.48335986E+02
 -0.40669393E+02 -0.30743642E+02 -0.18706067E+02 -0.24111472E+01  0.22208965E-11
 Non local Part
           0           2   1.35012272817262     
   3.43693015962111        6.58280220178957        6.58280220178957     
   12.6143424936094     
 Reciprocal Space Part
 -0.50715673E+02 -0.51053361E+02 -0.52058060E+02 -0.53704864E+02 -0.55952916E+02
 -0.58746367E+02 -0.62015689E+02 -0.65679299E+02 -0.69645471E+02 -0.73814468E+02
 -0.78080865E+02 -0.82335983E+02 -0.86470387E+02 -0.90376397E+02 -0.93950522E+02
 -0.97095799E+02 -0.99723940E+02 -0.10175727E+03 -0.10313042E+03 -0.10379164E+03
 -0.10370391E+03 -0.10284556E+03 -0.10121063E+03 -0.98808796E+02 -0.95665008E+02
 -0.91818702E+02 -0.87322748E+02 -0.82242096E+02 -0.76652162E+02 -0.70637020E+02
 -0.64287424E+02 -0.57698727E+02 -0.50968742E+02 -0.44195600E+02 -0.37475654E+02
 -0.30901487E+02 -0.24560051E+02 -0.18531004E+02 -0.12885253E+02 -0.76837510E+01
 -0.29765661E+01  0.11977739E+01  0.48126404E+01  0.78533756E+01  0.10317083E+02
  0.12212150E+02  0.13557531E+02  0.14381805E+02  0.14722053E+02  0.14622581E+02
  0.14133535E+02  0.13309435E+02  0.12207682E+02  0.10887065E+02  0.94063161E+01
  0.78227422E+01  0.61909615E+01  0.45617827E+01  0.29812398E+01  0.14898037E+01
  0.12178200E+00 -0.10950875E+01 -0.21398483E+01 -0.29983466E+01 -0.36630730E+01
 -0.41328369E+01 -0.44122938E+01 -0.45113447E+01 -0.44444328E+01 -0.42297623E+01
 -0.38884658E+01 -0.34437463E+01 -0.29200203E+01 -0.23420858E+01 -0.17343380E+01
 -0.11200518E+01 -0.52074897E+00  0.44337630E-01  0.55869244E+00  0.10088323E+01
  0.13845057E+01  0.16787778E+01  0.18880057E+01  0.20117107E+01  0.20523603E+01
  0.20150695E+01  0.19072385E+01  0.17381402E+01  0.15184751E+01  0.12599094E+01
  0.97461151E+00  0.67480403E+00  0.37234205E+00  0.78332298E-01 -0.19719810E+00
 -0.44557503E+00 -0.65968740E+00 -0.83413060E+00 -0.96528269E+00 -0.10513146E+01
 Real Space Part
 -0.14969166E+03 -0.14966371E+03 -0.14957975E+03 -0.14943948E+03 -0.14924239E+03
 -0.14898777E+03 -0.14867473E+03 -0.14830216E+03 -0.14786883E+03 -0.14737331E+03
 -0.14681402E+03 -0.14618926E+03 -0.14549719E+03 -0.14473587E+03 -0.14390329E+03
 -0.14299734E+03 -0.14201587E+03 -0.14095673E+03 -0.13981773E+03 -0.13859670E+03
 -0.13729153E+03 -0.13590015E+03 -0.13442059E+03 -0.13285097E+03 -0.13118956E+03
 -0.12943478E+03 -0.12758523E+03 -0.12563971E+03 -0.12359725E+03 -0.12145711E+03
 -0.11921885E+03 -0.11688229E+03 -0.11444757E+03 -0.11191514E+03 -0.10928581E+03
 -0.10656073E+03 -0.10374144E+03 -0.10082984E+03 -0.97828244E+02 -0.94739361E+02
 -0.91566309E+02 -0.88312622E+02 -0.84982254E+02 -0.81579577E+02 -0.78109386E+02
 -0.74576891E+02 -0.70987716E+02 -0.67347889E+02 -0.63663836E+02 -0.59942371E+02
 -0.56190680E+02 -0.52416308E+02 -0.48627142E+02 -0.44831394E+02 -0.41037575E+02
 -0.37254482E+02 -0.33491163E+02 -0.29756902E+02 -0.26061182E+02 -0.22413664E+02
 -0.18824155E+02 -0.15302572E+02 -0.11858918E+02 -0.85032426E+01 -0.52456099E+01
 -0.20960643E+01  0.93540543E+00  0.38389015E+01  0.66046534E+01  0.92230536E+01
  0.11684694E+02  0.13980400E+02  0.16101270E+02  0.18038706E+02  0.19784450E+02
  0.21330618E+02  0.22669731E+02  0.23794748E+02  0.24699096E+02  0.25376698E+02
  0.25822000E+02  0.26030002E+02  0.25996273E+02  0.25716984E+02  0.25188937E+02
  0.24409462E+02  0.23375763E+02  0.22108958E+02  0.20689345E+02  0.19135908E+02
  0.17456921E+02  0.15660609E+02  0.13755424E+02  0.11749787E+02  0.96524084E+01
  0.74704561E+01  0.52112957E+01  0.29291294E+01  0.35785952E+00 -0.32122043E-12
 Reciprocal Space Part
  0.38128247E+02  0.38262636E+02  0.38662055E+02  0.39315346E+02  0.40204213E+02
  0.41303667E+02  0.42582629E+02  0.44004683E+02  0.45528953E+02  0.47111090E+02
  0.48704335E+02  0.50260644E+02  0.51731831E+02  0.53070718E+02  0.54232249E+02
  0.55174551E+02  0.55859917E+02  0.56255673E+02  0.56334933E+02  0.56077202E+02
  0.55468826E+02  0.54503278E+02  0.53181277E+02  0.51510728E+02  0.49506504E+02
  0.47190063E+02  0.44588920E+02  0.41735989E+02  0.38668801E+02  0.35428641E+02
  0.32059605E+02  0.28607615E+02  0.25119408E+02  0.21641535E+02  0.18219377E+02
  0.14896219E+02  0.11712393E+02  0.87045105E+01  0.59048013E+01  0.33405747E+01
  0.10338072E+01 -0.99913329E+00 -0.27476244E+01 -0.42067894E+01 -0.53773646E+01
 -0.62654409E+01 -0.68820919E+01 -0.72428993E+01 -0.73673939E+01 -0.72784268E+01
 -0.70014903E+01 -0.65640073E+01 -0.59946084E+01 -0.53224148E+01 -0.45763452E+01
 -0.37844635E+01 -0.29733817E+01 -0.21677306E+01 -0.13897088E+01 -0.65871864E+00
  0.89073281E-02  0.60008495E+00  0.11050636E+01  0.15174198E+01  0.18339646E+01
  0.20545715E+01  0.21819348E+01  0.22212667E+01  0.21799482E+01  0.20671424E+01
  0.18933858E+01  0.16701687E+01  0.14095186E+01  0.11235962E+01  0.82431715E+00
  0.52300656E+00  0.23009637E+00 -0.45129710E-01 -0.29473847E+00 -0.51229399E+00
 -0.69294818E+00 -0.83347574E+00 -0.93225608E+00 -0.98920595E+00 -0.10056681E+01
 -0.98426215E+00 -0.92870458E+00 -0.84360573E+00 -0.73425134E+00 -0.60637682E+00
 -0.46594182E+00 -0.31891234E+00 -0.17105705E+00 -0.27763489E-01  0.10612094E+00
  0.22641959E+00  0.32972608E+00  0.41347137E+00  0.47595804E+00  0.51636261E+00
 Real Space Part
  0.78076177E+02  0.78062207E+02  0.78020243E+02  0.77950126E+02  0.77851595E+02
  0.77724286E+02  0.77567734E+02  0.77381384E+02  0.77164587E+02  0.76916611E+02
  0.76636644E+02  0.76323805E+02  0.75977149E+02  0.75595675E+02  0.75178336E+02
  0.74724049E+02  0.74231705E+02  0.73700178E+02  0.73128338E+02  0.72515061E+02
  0.71859241E+02  0.71159801E+02  0.70415707E+02  0.69625976E+02  0.68789695E+02
  0.67906024E+02  0.66974215E+02  0.65993621E+02  0.64963707E+02  0.63884061E+02
  0.62754406E+02  0.61574611E+02  0.60344695E+02  0.59064846E+02  0.57735420E+02
  0.56356955E+02  0.54930175E+02  0.53455997E+02  0.51935538E+02  0.50370118E+02
  0.48761265E+02  0.47110716E+02  0.45420421E+02  0.43692543E+02  0.41929457E+02
  0.40133749E+02  0.38308216E+02  0.36455861E+02  0.34579888E+02  0.32683697E+02
  0.30770881E+02  0.28845212E+02  0.26910640E+02  0.24971279E+02  0.23031398E+02
  0.21095410E+02  0.19167859E+02  0.17253409E+02  0.15356831E+02  0.13482984E+02
  0.11636806E+02  0.98232922E+01  0.80474856E+01  0.63144549E+01  0.46292798E+01
  0.29970330E+01  0.14227627E+01 -0.88525736E-01 -0.15318875E+01 -0.29024566E+01
 -0.41954644E+01 -0.54062568E+01 -0.65303132E+01 -0.75632634E+01 -0.85009052E+01
 -0.93392214E+01 -0.10074396E+02 -0.10702831E+02 -0.11221160E+02 -0.11626265E+02
 -0.11915290E+02 -0.12085650E+02 -0.12135052E+02 -0.12061496E+02 -0.11863304E+02
 -0.11539060E+02 -0.11087304E+02 -0.10518044E+02 -0.98697760E+01 -0.91517915E+01
 -0.83682638E+01 -0.75233462E+01 -0.66213035E+01 -0.56663866E+01 -0.46629912E+01
 -0.36147619E+01 -0.25254419E+01 -0.14215565E+01 -0.17383069E+00  0.15625222E-12
 PAW radial sets
         349   1.17603094419624     
(5E20.12)                                
 augmentation charges (non sperical)
  0.483509983306E+00 -0.387444223508E+00  0.244831883198E+00  0.311699342739E+00 -0.208792375121E+00
 -0.389325025701E+00 -0.387444223508E+00  0.165070728372E+00 -0.223472482206E+00 -0.280474026591E+00
  0.453277889439E-01  0.736751805182E-01  0.244831883198E+00 -0.223472482206E+00  0.127887575790E+00
  0.163489887784E+00 -0.122416408709E+00 -0.228585235356E+00  0.311699342739E+00 -0.280474026591E+00
  0.163489887784E+00  0.208860152529E+00 -0.152909344504E+00 -0.285411282417E+00 -0.208792375121E+00
  0.453277889439E-01 -0.122416408709E+00 -0.152909344504E+00 -0.121151267373E-01 -0.320197152757E-01
 -0.389325025701E+00  0.736751805182E-01 -0.228585235356E+00 -0.285411282417E+00 -0.320197152757E-01
 -0.783260901816E-01
 uccopancies in atom
  0.200000000388E+01  0.000000000000E+00  0.000000000000E+00  0.000000000000E+00  0.000000000000E+00
  0.000000000000E+00  0.000000000000E+00  0.000000000000E+00  0.000000000000E+00  0.000000000000E+00
  0.000000000000E+00  0.000000000000E+00  0.000000000000E+00  0.000000000000E+00  0.800000008927E+00
  0.000000000000E+00  0.000000000000E+00  0.000000000000E+00  0.000000000000E+00  0.000000000000E+00
  0.000000000000E+00  0.000000000000E+00  0.000000000000E+00  0.000000000000E+00  0.000000000000E+00
  0.000000000000E+00  0.000000000000E+00  0.000000000000E+00  0.100000000072E+01  0.000000000000E+00
  0.000000000000E+00  0.000000000000E+00  0.000000000000E+00  0.000000000000E+00  0.000000000000E+00
  0.000000000000E+00
 grid
  0.657365915976E-04  0.678741815636E-04  0.700812806227E-04  0.723601490371E-04  0.747131205673E-04
  0.771426048617E-04  0.796510899246E-04  0.822411446637E-04  0.849154215216E-04  0.876766591915E-04
  0.905276854218E-04  0.934714199128E-04  0.965108773057E-04  0.996491702705E-04  0.102889512693E-03
  0.106235222968E-03  0.109689727395E-03  0.113256563687E-03  0.116939384598E-03  0.120741961657E-03
  0.124668189035E-03  0.128722087534E-03  0.132907808698E-03  0.137229639073E-03  0.141692004589E-03
  0.146299475100E-03  0.151056769058E-03  0.155968758347E-03  0.161040473274E-03  0.166277107718E-03
  0.171684024450E-03  0.177266760626E-03  0.183031033455E-03  0.188982746057E-03  0.195127993504E-03
  0.201473069068E-03  0.208024470660E-03  0.214788907489E-03  0.221773306927E-03  0.228984821612E-03
  0.236430836763E-03  0.244118977752E-03  0.252057117906E-03  0.260253386575E-03  0.268716177454E-03
  0.277454157180E-03  0.286476274208E-03  0.295791767974E-03  0.305410178358E-03  0.315341355453E-03
  0.325595469652E-03  0.336183022064E-03  0.347114855267E-03  0.358402164415E-03  0.370056508698E-03
  0.382089823182E-03  0.394514431035E-03  0.407343056139E-03  0.420588836128E-03  0.434265335838E-03
  0.448386561200E-03  0.462966973582E-03  0.478021504602E-03  0.493565571414E-03  0.509615092501E-03
  0.526186503975E-03  0.543296776409E-03  0.560963432218E-03  0.579204563601E-03  0.598038851071E-03
  0.617485582583E-03  0.637564673291E-03  0.658296685937E-03  0.679702851914E-03  0.701805093007E-03
  0.724626043842E-03  0.748189075067E-03  0.772518317285E-03  0.797638685766E-03  0.823575905962E-03
  0.850356539853E-03  0.878008013149E-03  0.906558643374E-03  0.936037668870E-03  0.966475278733E-03
  0.997902643736E-03  0.103035194825E-02  0.106385642319E-02  0.109845038008E-02  0.113416924614E-02
  0.117104960062E-02  0.120912921222E-02  0.124844707779E-02  0.128904346226E-02  0.133095993989E-02
  0.137423943679E-02  0.141892627497E-02  0.146506621764E-02  0.151270651615E-02  0.156189595831E-02
  0.161268491842E-02  0.166512540881E-02  0.171927113313E-02  0.177517754132E-02  0.183290188644E-02
  0.189250328325E-02  0.195404276881E-02  0.201758336491E-02  0.208319014268E-02  0.215093028920E-02
  0.222087317629E-02  0.229309043158E-02  0.236765601185E-02  0.244464627878E-02  0.252414007712E-02
  0.260621881547E-02  0.269096654962E-02  0.277847006868E-02  0.286881898388E-02  0.296210582040E-02
  0.305842611213E-02  0.315787849946E-02  0.326056483032E-02  0.336659026449E-02  0.347606338127E-02
  0.358909629071E-02  0.370580474839E-02  0.382630827395E-02  0.395073027355E-02  0.407919816618E-02
  0.421184351419E-02  0.434880215800E-02  0.449021435525E-02  0.463622492437E-02  0.478698339294E-02
  0.494264415082E-02  0.510336660821E-02  0.526931535897E-02  0.544066034911E-02  0.561757705087E-02
  0.580024664243E-02  0.598885619339E-02  0.618359885643E-02  0.638467406505E-02  0.659228773783E-02
  0.680665248932E-02  0.702798784775E-02  0.725652047988E-02  0.749248442308E-02  0.773612132505E-02
  0.798768069128E-02  0.824742014054E-02  0.851560566871E-02  0.879251192122E-02  0.907842247426E-02
  0.937363012523E-02  0.967843719255E-02  0.999315582531E-02  0.103181083229E-01  0.106536274650E-01
  0.110000568526E-01  0.113577512597E-01  0.117270769965E-01  0.121084122850E-01  0.125021476457E-01
  0.129086862981E-01  0.133284445732E-01  0.137618523404E-01  0.142093534469E-01  0.146714061729E-01
  0.151484837010E-01  0.156410746001E-01  0.161496833264E-01  0.166748307396E-01  0.172170546367E-01
  0.177769103022E-01  0.183549710772E-01  0.189518289466E-01  0.195680951449E-01  0.202044007826E-01
  0.208613974922E-01  0.215397580959E-01  0.222401772940E-01  0.229633723772E-01  0.237100839603E-01
  0.244810767412E-01  0.252771402840E-01  0.260990898273E-01  0.269477671192E-01  0.278240412795E-01
  0.287288096894E-01  0.296629989109E-01  0.306275656354E-01  0.316234976634E-01  0.326518149164E-01
  0.337135704812E-01  0.348098516882E-01  0.359417812251E-01  0.371105182868E-01  0.383172597620E-01
  0.395632414596E-01  0.408497393737E-01  0.421780709905E-01  0.435495966377E-01  0.449657208774E-01
  0.464278939445E-01  0.479376132322E-01  0.494964248248E-01  0.511059250816E-01  0.527677622716E-01
  0.544836382612E-01  0.562553102574E-01  0.580845926071E-01  0.599733586554E-01  0.619235426636E-01
  0.639371417907E-01  0.660162181381E-01  0.681629008616E-01  0.703793883520E-01  0.726679504861E-01
  0.750309309515E-01  0.774707496468E-01  0.799899051594E-01  0.825909773248E-01  0.852766298681E-01
  0.880496131322E-01  0.909127668944E-01  0.938690232742E-01  0.969214097365E-01  0.100073052192E+00
  0.103327178197E+00  0.106687120262E+00  0.110156319262E+00  0.113738327958E+00  0.117436814640E+00
  0.121255566883E+00  0.125198495423E+00  0.129269638162E+00  0.133473164307E+00  0.137813378635E+00
  0.142294725906E+00  0.146921795411E+00  0.151699325672E+00  0.156632209300E+00  0.161725497996E+00
  0.166984407735E+00  0.172414324100E+00  0.178020807798E+00  0.183809600361E+00  0.189786630015E+00
  0.195958017764E+00  0.202330083646E+00  0.208909353214E+00  0.215702564216E+00  0.222716673492E+00
  0.229958864104E+00  0.237436552687E+00  0.245157397049E+00  0.253129304008E+00  0.261360437494E+00
  0.269859226907E+00  0.278634375749E+00  0.287694870541E+00  0.297049990020E+00  0.306709314646E+00
  0.316682736412E+00  0.326980468974E+00  0.337613058108E+00  0.348591392516E+00  0.359926714972E+00
  0.371630633835E+00  0.383715134943E+00  0.396192593879E+00  0.409075788652E+00  0.422377912780E+00
  0.436112588799E+00  0.450293882219E+00  0.464936315923E+00  0.480054885043E+00  0.495665072314E+00
  0.511782863932E+00  0.528424765925E+00  0.545607821055E+00  0.563349626270E+00  0.581668350731E+00
  0.600582754412E+00  0.620112207315E+00  0.640276709306E+00  0.661096910598E+00  0.682594132895E+00
  0.704790391233E+00  0.727708416519E+00  0.751371678813E+00  0.775804411365E+00  0.801031635428E+00
  0.827079185882E+00  0.853973737697E+00  0.881742833243E+00  0.910414910501E+00  0.940019332183E+00
  0.970586415804E+00  0.100214746473E+01  0.103473480023E+01  0.106838179459E+01  0.110312290526E+01
  0.113899371018E+01  0.117603094420E+01  0.121427253666E+01  0.125375765032E+01  0.129452672136E+01
  0.133662150089E+01  0.138008509764E+01  0.142496202212E+01  0.147129823223E+01  0.151914118031E+01
  0.156853986170E+01  0.161954486497E+01  0.167220842371E+01  0.172658447000E+01  0.178272868966E+01
  0.184069857929E+01  0.190055350510E+01  0.196235476379E+01  0.202616564523E+01  0.209205149735E+01
  0.216007979301E+01  0.223032019914E+01  0.230284464805E+01  0.237772741111E+01  0.245504517481E+01
  0.253487711931E+01  0.261730499948E+01  0.270241322869E+01  0.279028896519E+01  0.288102220142E+01
  0.297470585614E+01  0.307143586959E+01  0.317131130178E+01  0.327443443386E+01  0.338091087293E+01
  0.349084966018E+01  0.360436338252E+01  0.372156828794E+01  0.384258440448E+01  0.396753566324E+01
  0.409655002522E+01  0.422975961239E+01  0.436730084303E+01  0.450931457136E+01
 aepotential
  0.102621540524E+05  0.103249063276E+05  0.103807205215E+05  0.104290526314E+05  0.104693815097E+05
  0.105012142949E+05  0.105240927992E+05  0.105375994821E+05  0.105413633520E+05  0.105350653367E+05
  0.105184434763E+05  0.104912973620E+05  0.104534918120E+05  0.104049602970E+05  0.103457065412E+05
  0.102758064075E+05  0.101954077392E+05  0.101047297703E+05  0.100040615051E+05  0.989375878317E+04
  0.977424073022E+04  0.964598519466E+04  0.950952323252E+04  0.936543322029E+04  0.921433408066E+04
  0.905687818976E+04  0.889374407395E+04  0.872562871855E+04  0.855324012060E+04  0.837728978332E+04
  0.819848538030E+04  0.801752428938E+04  0.783508684374E+04  0.765183086685E+04  0.746838628471E+04
  0.728535094308E+04  0.710328652289E+04  0.692271596609E+04  0.674412073976E+04  0.656793968262E+04
  0.639456784769E+04  0.622435633643E+04  0.605761264673E+04  0.589460146487E+04  0.573554596979E+04
  0.558062952391E+04  0.542999765038E+04  0.528376028719E+04  0.514199421719E+04  0.500474563148E+04
  0.487203276476E+04  0.474384855611E+04  0.462016329238E+04  0.450092719655E+04  0.438607293058E+04
  0.427551798789E+04  0.416916695582E+04  0.406691363401E+04  0.396864299895E+04  0.387423300915E+04
  0.378355624905E+04  0.369648141259E+04  0.361287463033E+04  0.353260064521E+04  0.345552384486E+04
  0.338150915760E+04  0.331042282332E+04  0.324213304584E+04  0.317651054018E+04  0.311342898048E+04
  0.305276536302E+04  0.299440028855E+04  0.293821817712E+04  0.288410742008E+04  0.283196048211E+04
  0.278167395487E+04  0.273314856806E+04  0.268628917666E+04  0.264100471018E+04  0.259720810882E+04
  0.255481622349E+04  0.251374973046E+04  0.247393299727E+04  0.243529397431E+04  0.239776406068E+04
  0.236127796485E+04  0.232577357838E+04  0.229119183228E+04  0.225747656577E+04  0.222457438954E+04
  0.219243455631E+04  0.216100883153E+04  0.213025137046E+04  0.210011859758E+04  0.207056909151E+04
  0.204156347490E+04  0.201306431019E+04  0.198503599733E+04  0.195744468042E+04  0.193025815775E+04
  0.190344579612E+04  0.187697845242E+04  0.185082839767E+04  0.182496924739E+04  0.179937589722E+04
  0.177402446072E+04  0.174889221468E+04  0.172395754629E+04  0.169919990609E+04  0.167459976431E+04
  0.165013857145E+04  0.162579872252E+04  0.160156352577E+04  0.157741717417E+04  0.155334472157E+04
  0.152933206157E+04  0.150536591091E+04  0.148143379561E+04  0.145752404133E+04  0.143362576693E+04
  0.140972888191E+04  0.138582408759E+04  0.136190288177E+04  0.133795756780E+04  0.131398126739E+04
  0.128996793754E+04  0.126591239224E+04  0.124181032832E+04  0.121765835638E+04  0.119345403652E+04
  0.116919591930E+04  0.114488359207E+04  0.112051773066E+04  0.109610015656E+04  0.107163389934E+04
  0.104712326423E+04  0.102257390393E+04  0.997992894034E+03  0.973388810437E+03  0.948771806763E+03
  0.924153689114E+03  0.899547984390E+03  0.874969997505E+03  0.850436851369E+03  0.825967502940E+03
  0.801582726522E+03  0.777305054763E+03  0.753158668724E+03  0.729169226337E+03  0.705363623878E+03
  0.681769687012E+03  0.658415798659E+03  0.635330481612E+03  0.612541973968E+03  0.590077859385E+03
  0.567964845292E+03  0.546228815657E+03  0.524895315789E+03  0.503990641798E+03  0.483543689871E+03
  0.463588644417E+03  0.444168424587E+03  0.425338548255E+03  0.407170724929E+03  0.389755120180E+03
  0.373199978947E+03  0.357627422628E+03  0.343164151321E+03  0.329928835957E+03  0.318015668702E+03
  0.307478754463E+03  0.298320003907E+03  0.290483253783E+03  0.283855943632E+03  0.278277674917E+03
  0.273553594828E+03  0.269470021658E+03  0.265809969323E+03  0.262366785805E+03  0.258954668477E+03
  0.255415353823E+03  0.251620922138E+03  0.247473324588E+03  0.242901666822E+03  0.237858356945E+03
  0.232314972672E+03  0.226258391180E+03  0.219687451673E+03  0.212610265730E+03  0.205042181415E+03
  0.197004359255E+03  0.188522879847E+03  0.179628275794E+03  0.170355381960E+03  0.160743391245E+03
  0.150836009266E+03  0.140681608766E+03  0.130333291120E+03  0.119848782890E+03  0.109290138303E+03
  0.987232920260E+02  0.882176305190E+02  0.778458953644E+02  0.676848629103E+02  0.578172129109E+02
  0.483346400934E+02  0.393414053059E+02  0.309562363469E+02  0.233093506295E+02  0.165314119834E+02
  0.107333723601E+02  0.598000493443E+01  0.226384436901E+01 -0.511592455253E+00 -0.252938532753E+01
 -0.403126995510E+01 -0.527007482199E+01 -0.646403446696E+01 -0.777552106707E+01 -0.931723605461E+01
 -0.111696564828E+02 -0.133936536944E+02 -0.160341409998E+02 -0.191192128890E+02 -0.226597493622E+02
 -0.266511681367E+02 -0.310764664135E+02 -0.359091521477E+02 -0.411152279637E+02 -0.466540744815E+02
 -0.524784995152E+02 -0.585343900093E+02 -0.647604867308E+02 -0.710888208273E+02 -0.774462695348E+02
 -0.837572784367E+02 -0.899468052408E+02 -0.959408510796E+02 -0.101660278169E+03 -0.107004266971E+03
 -0.111826411904E+03 -0.115919997892E+03 -0.119042007110E+03 -0.120999987487E+03 -0.121791521540E+03
 -0.121708458554E+03 -0.121247798511E+03 -0.120833693525E+03 -0.120635553883E+03 -0.120637439189E+03
 -0.120785923326E+03 -0.121064679084E+03 -0.121496936040E+03 -0.122121200308E+03 -0.122968769259E+03
 -0.124053266515E+03 -0.125370877625E+03 -0.126905558949E+03 -0.128634535106E+03 -0.130532097021E+03
 -0.132571577502E+03 -0.134726070856E+03 -0.136968487097E+03 -0.139271352150E+03 -0.141606601145E+03
 -0.143945503048E+03 -0.146258750572E+03 -0.148516762715E+03 -0.150690116262E+03 -0.152750046221E+03
 -0.154668833268E+03 -0.156420286136E+03 -0.157979976436E+03 -0.159325915045E+03 -0.160439723224E+03
 -0.161308470150E+03 -0.161926710003E+03 -0.162297836735E+03 -0.162433578514E+03 -0.162351573668E+03
 -0.162071860519E+03 -0.161613475668E+03 -0.160992392941E+03 -0.160220917754E+03 -0.159308112135E+03
 -0.158260633078E+03 -0.157083600504E+03 -0.155781273531E+03 -0.154357559898E+03 -0.152816358818E+03
 -0.151161777360E+03 -0.149398277092E+03 -0.147530644323E+03 -0.145564143968E+03 -0.143504327011E+03
 -0.141357069255E+03 -0.139128507660E+03 -0.136825013282E+03 -0.134453171214E+03 -0.132019761236E+03
 -0.129531750146E+03 -0.126996196985E+03 -0.124420209232E+03 -0.121810814880E+03 -0.119174862410E+03
 -0.116518957105E+03 -0.113849481459E+03 -0.111172674609E+03 -0.108494812318E+03 -0.105822323007E+03
 -0.103161847975E+03 -0.100520142230E+03 -0.979038549892E+02 -0.953192522929E+02 -0.927719678392E+02
 -0.902668363096E+02 -0.878078442616E+02 -0.853981564982E+02 -0.830402045916E+02 -0.807357607242E+02
 -0.784860341288E+02 -0.762916904302E+02 -0.741528795417E+02 -0.720692146490E+02 -0.700397653129E+02
 -0.680630674899E+02 -0.661371852489E+02 -0.642598314624E+02 -0.624285446967E+02 -0.606408983409E+02
 -0.588947068114E+02 -0.571881947007E+02 -0.555201047594E+02 -0.538897359010E+02 -0.522969000474E+02
 -0.507419232297E+02 -0.492253671199E+02 -0.477480577934E+02 -0.463108551897E+02 -0.449145288237E+02
 -0.435596285063E+02 -0.422463804119E+02 -0.409746185798E+02 -0.397437593452E+02 -0.385528205980E+02
 -0.374004807056E+02 -0.362851655874E+02 -0.352051488429E+02 -0.341586499494E+02
 core charge-density
  0.130773012781E+00  0.137970849167E+00  0.145561863641E+00  0.153567276633E+00  0.162009430902E+00
  0.170911848837E+00  0.180299292511E+00  0.190197826579E+00  0.200634884158E+00  0.211639335795E+00
  0.223241561656E+00  0.235473527054E+00  0.248368861453E+00  0.261962941072E+00  0.276292975223E+00
  0.291398096520E+00  0.307319455094E+00  0.324100316951E+00  0.341786166605E+00  0.360424814135E+00
  0.380066506784E+00  0.400764045259E+00  0.422572904841E+00  0.445551361447E+00  0.469760622771E+00
  0.495264964612E+00  0.522131872520E+00  0.550432188849E+00  0.580240265322E+00  0.611634121199E+00
  0.644695607104E+00  0.679510574589E+00  0.716169051461E+00  0.754765422903E+00  0.795398618384E+00
  0.838172304336E+00  0.883195082548E+00  0.930580694183E+00  0.980448229319E+00  0.103292234183E+01
  0.108813346944E+01  0.114621805865E+01  0.120731879433E+01  0.127158483348E+01  0.133917204290E+01
  0.141024324012E+01  0.148496843710E+01  0.156352508612E+01  0.164609832690E+01  0.173288123439E+01
  0.182407506595E+01  0.191988950723E+01  0.202054291516E+01  0.212626255707E+01  0.223728484414E+01
  0.235385555788E+01  0.247623006748E+01  0.260467353632E+01  0.273946111531E+01  0.288087812070E+01
  0.302922019371E+01  0.318479343926E+01  0.334791454050E+01  0.351891084597E+01  0.369812042560E+01
  0.388589209177E+01  0.408258538106E+01  0.428857049222E+01  0.450422817549E+01  0.472994956800E+01
  0.496613596969E+01  0.521319855390E+01  0.547155800619E+01  0.574164408485E+01  0.602389509599E+01
  0.631875727577E+01  0.662668407207E+01  0.694813531733E+01  0.728357628425E+01  0.763347661525E+01
  0.799830911694E+01  0.837854840982E+01  0.877466942399E+01  0.918714573073E+01  0.961644770041E+01
  0.100630404765E+02  0.105273817559E+02  0.110099193661E+02  0.115110886294E+02  0.120313095051E+02
  0.125709835014E+02  0.131304903492E+02  0.137101844305E+02  0.143103909561E+02  0.149314018881E+02
  0.155734716037E+02  0.162368123012E+02  0.169215891464E+02  0.176279151673E+02  0.183558458998E+02
  0.191053737974E+02  0.198764224175E+02  0.206688404024E+02  0.214823952773E+02  0.223167670936E+02
  0.231715419506E+02  0.240462054347E+02  0.249401360226E+02  0.258525985012E+02  0.267827374662E+02
  0.277295709668E+02  0.286919843756E+02  0.296687245693E+02  0.306583945169E+02  0.316594483800E+02
  0.326701872416E+02  0.336887555875E+02  0.347131386750E+02  0.357411609342E+02  0.367704855526E+02
  0.377986154064E+02  0.388228955042E+02  0.398405171195E+02  0.408485237877E+02  0.418438193493E+02
  0.428231782191E+02  0.437832580565E+02  0.447206150098E+02  0.456317216916E+02  0.465129880328E+02
  0.473607851400E+02  0.481714722570E+02  0.489414269021E+02  0.496670782135E+02  0.503449434932E+02
  0.509716678885E+02  0.515440670916E+02  0.520591728731E+02  0.525142811922E+02  0.529070025442E+02
  0.532353141206E+02  0.534976132627E+02  0.536927715898E+02  0.538201890803E+02  0.538798472781E+02
  0.538723606890E+02  0.537990253265E+02  0.536618632657E+02  0.534636619697E+02  0.532080070682E+02
  0.528993072024E+02  0.525428094965E+02  0.521446041944E+02  0.517116169966E+02  0.512515876723E+02
  0.507730335895E+02  0.502851969234E+02  0.497979744624E+02  0.493218291448E+02  0.488676827191E+02
  0.484467892444E+02  0.480705895172E+02  0.477505469430E+02  0.474979658491E+02  0.473237937676E+02
  0.472384097897E+02  0.472514017019E+02  0.473713352129E+02  0.476055195682E+02  0.479597733258E+02
  0.484381969281E+02  0.490429567686E+02  0.497740876305E+02  0.506293201475E+02  0.516039402837E+02
  0.526906879148E+02  0.538797014819E+02  0.551585153647E+02  0.565121160483E+02  0.579230623276E+02
  0.593716736794E+02  0.608362895470E+02  0.622936006146E+02  0.637190512124E+02  0.650873098187E+02
  0.663728022253E+02  0.675502993721E+02  0.685955491825E+02  0.694859390421E+02  0.702011729253E+02
  0.707239447131E+02  0.710405870788E+02  0.711416735457E+02  0.710225501179E+02  0.706837723488E+02
  0.701314239912E+02  0.693772945863E+02  0.684388955903E+02  0.673392979822E+02  0.661067787806E+02
  0.647742694958E+02  0.633786061972E+02  0.619595884182E+02  0.605588623647E+02  0.592186525144E+02
  0.579803743639E+02  0.568831693842E+02  0.559624107525E+02  0.552482347583E+02  0.547641575125E+02
  0.545258394162E+02  0.545400603582E+02  0.548039664319E+02  0.553046432013E+02  0.560190639044E+02
  0.569144443259E+02  0.579490232962E+02  0.590732665296E+02  0.602314668281E+02  0.613636976355E+02
  0.624080565489E+02  0.633031183239E+02  0.639905003677E+02  0.644174298210E+02  0.645391924104E+02
  0.643213407746E+02  0.637415444209E+02  0.627909745976E+02  0.614751348157E+02  0.598140708877E+02
  0.578419223778E+02  0.556058092259E+02  0.531640814900E+02  0.505839950642E+02  0.479389098349E+02
  0.453051369920E+02  0.427585867754E+02  0.403713845903E+02  0.382086299347E+02  0.363254673360E+02
  0.347646211010E+02  0.335545183303E+02  0.327080894881E+02  0.322223087841E+02  0.320785071860E+02
  0.322434729140E+02  0.326713364865E+02  0.333061278056E+02  0.340847917756E+02  0.349403984922E+02
  0.358053713733E+02  0.366145865740E+02  0.373082170935E+02  0.378341879637E+02  0.381501188044E+02
  0.382246615795E+02  0.380381862327E+02  0.375828167895E+02  0.368618665774E+02  0.358887578233E+02
  0.346855360998E+02  0.332811039444E+02  0.317093014458E+02  0.300069560610E+02  0.282120110227E+02
  0.263618236732E+02  0.244917026138E+02  0.226337311431E+02  0.208159010226E+02  0.190615587495E+02
  0.173891493985E+02  0.158122260648E+02  0.143396898550E+02  0.129762053630E+02  0.117227456409E+02
  0.105772168598E+02  0.953511770866E+01  0.859019530547E+01  0.773505999738E+01  0.696173889824E+01
  0.626214770848E+01  0.562846411849E+01  0.505340372363E+01  0.453040110388E+01  0.405370563601E+01
  0.361840535247E+01  0.322039385431E+01  0.285629568249E+01  0.252336467146E+01  0.221936840496E+01
  0.194246987782E+01  0.169111520385E+01  0.146393413963E+01  0.125965631521E+01  0.107704791329E+01
  0.914866436458E+00  0.771833808933E+00  0.646625357346E+00  0.537871828866E+00  0.444171263413E+00
  0.364107501270E+00  0.296272310899E+00  0.239288497634E+00  0.191831853240E+00  0.152650356391E+00
  0.120579585462E+00  0.945538073757E-01  0.736126851832E-01  0.569037664337E-01  0.436813182210E-01
  0.333020973071E-01  0.252187658238E-01  0.189716612463E-01  0.141795871080E-01  0.105302119402E-01
  0.777056101851E-02  0.569797127515E-02  0.415176638152E-02  0.300580622233E-02  0.216197891187E-02
  0.154463665038E-02  0.109592876528E-02  0.771954269808E-03  0.539639161234E-03  0.374237474091E-03
  0.257356736547E-03  0.175415372428E-03  0.118449559267E-03  0.791984115422E-04  0.524078718037E-04
  0.343045314976E-04  0.222002722469E-04  0.141968857392E-04  0.896666038032E-05  0.559041202418E-05
  0.343875667288E-05  0.208577636570E-05  0.124681075125E-05  0.734091550362E-06  0.425460183006E-06
  0.242582823743E-06  0.135981016701E-06  0.748910510042E-07  0.404970586207E-07  0.214862403288E-07
  0.111772759669E-07  0.569691407815E-08  0.284286233156E-08  0.138791752851E-08
 kinetic energy-density
  0.282632247387E+07  0.280789289721E+07  0.278983558185E+07  0.277215283902E+07  0.275484701365E+07
  0.273792047883E+07  0.272137564885E+07  0.270521499220E+07  0.268944103816E+07  0.267405638922E+07
  0.265906373400E+07  0.264446585416E+07  0.263026564302E+07  0.261646610638E+07  0.260307038620E+07
  0.259008176584E+07  0.257750368067E+07  0.256533973703E+07  0.255359371511E+07  0.254226958770E+07
  0.253137152684E+07  0.252090391564E+07  0.251087136108E+07  0.250127869958E+07  0.249213101014E+07
  0.248343362162E+07  0.247519212055E+07  0.246741236158E+07  0.246010047222E+07  0.245326285655E+07
  0.244690621153E+07  0.244103752285E+07  0.243566408018E+07  0.243079346465E+07  0.242643358632E+07
  0.242259264350E+07  0.241927917816E+07  0.241650203502E+07  0.241427039896E+07  0.241259378456E+07
  0.241148203909E+07  0.241094535783E+07  0.241099427943E+07  0.241163969503E+07  0.241289285279E+07
  0.241476536238E+07  0.241726920096E+07  0.242041671675E+07  0.242422063534E+07  0.242869406390E+07
  0.243385049556E+07  0.243970381379E+07  0.244626829604E+07  0.245355861697E+07  0.246158985085E+07
  0.247037747332E+07  0.247993736210E+07  0.249028579660E+07  0.250143945627E+07  0.251341541751E+07
  0.252623114894E+07  0.253990450476E+07  0.255445371618E+07  0.256989738050E+07  0.258625444772E+07
  0.260354420417E+07  0.262178625351E+07  0.264100049373E+07  0.266120709149E+07  0.268242645130E+07
  0.270467918122E+07  0.272798605387E+07  0.275236796186E+07  0.277784586814E+07  0.280444074970E+07
  0.283217353767E+07  0.286106504660E+07  0.289113589866E+07  0.292240644013E+07  0.295489665062E+07
  0.298862603991E+07  0.302361353991E+07  0.305987738372E+07  0.309743497343E+07  0.313630274125E+07
  0.317649599574E+07  0.321802875411E+07  0.326091356750E+07  0.330516132630E+07  0.335078105844E+07
  0.339777970727E+07  0.344616189880E+07  0.349592969285E+07  0.354708231808E+07  0.359961589242E+07
  0.365352312601E+07  0.370879301170E+07  0.376541049577E+07  0.382335613630E+07  0.388260574409E+07
  0.394313001136E+07  0.400489412404E+07  0.406785736447E+07  0.413197269881E+07  0.419718635827E+07
  0.426343740950E+07  0.433065732030E+07  0.439876952223E+07  0.446768897160E+07  0.453732171487E+07
  0.460756446032E+07  0.467830416002E+07  0.474941760931E+07  0.482077106594E+07  0.489221989762E+07
  0.496360826157E+07  0.503476882597E+07  0.510552253791E+07  0.517567844805E+07  0.524503359938E+07
  0.531337298904E+07  0.538046961372E+07  0.544608460693E+07  0.550996747911E+07  0.557185647177E+07
  0.563147903347E+07  0.568855243155E+07  0.574278450640E+07  0.579387458090E+07  0.584151453248E+07
  0.588539003722E+07  0.592518199324E+07  0.596056812943E+07  0.599122480475E+07  0.601682899979E+07
  0.603706050232E+07  0.605160428376E+07  0.606015306258E+07  0.606241004589E+07  0.605809183779E+07
  0.604693149905E+07  0.602868173814E+07  0.600311821000E+07  0.597004289335E+07  0.592928751228E+07
  0.588071696695E+07  0.582423272573E+07  0.575977613426E+07  0.568733158889E+07  0.560692951770E+07
  0.551864910970E+07  0.542262073095E+07  0.531902796378E+07  0.520810920403E+07  0.509015875378E+07
  0.496552734725E+07  0.483462205196E+07  0.469790549204E+07  0.455589434653E+07  0.440915708370E+07
  0.425831090044E+07  0.410401784600E+07  0.394698011975E+07  0.378793454461E+07  0.362764623215E+07
  0.346690147249E+07  0.330649990343E+07  0.314724597608E+07  0.298994021562E+07  0.283536942363E+07
  0.268429732236E+07  0.253745479468E+07  0.239553030963E+07  0.225916063533E+07  0.212892200328E+07
  0.200532188208E+07  0.188879151618E+07  0.177967938492E+07  0.167824573636E+07  0.158465834595E+07
  0.149898963985E+07  0.142121530809E+07  0.135121450935E+07  0.128877174154E+07  0.123358041786E+07
  0.118524815212E+07  0.114330371665E+07  0.110720559341E+07  0.107635200325E+07  0.105009225178E+07
  0.102773919763E+07  0.100858261115E+07  0.991903159997E+06  0.976986731246E+06  0.963138776497E+06
  0.949698349774E+06  0.936051498373E+06  0.921643664370E+06  0.905990759647E+06  0.888688593874E+06
  0.869420361394E+06  0.847961928764E+06  0.824184717712E+06  0.798056034506E+06  0.769636772939E+06
  0.739076489290E+06  0.706605933679E+06  0.672527200665E+06  0.637201748148E+06  0.601036624268E+06
  0.564469341984E+06  0.527951917339E+06  0.491934807124E+06  0.456851076818E+06  0.423101785564E+06
  0.391043156528E+06  0.360975205387E+06  0.333133376799E+06  0.307682488653E+06  0.284713556154E+06
  0.264243546187E+06  0.246218074464E+06  0.230516921597E+06  0.216962099313E+06  0.205328058734E+06
  0.195353521118E+06  0.186754327914E+06  0.179236669476E+06  0.172510046841E+06  0.166299359125E+06
  0.160355572462E+06  0.154464520825E+06  0.148453496454E+06  0.142195411330E+06  0.135610439647E+06
  0.128665183427E+06  0.121369534941E+06  0.113771536151E+06  0.105950645555E+06  0.980098969551E+05
  0.900674469042E+05  0.822479812966E+05  0.746743475114E+05  0.674598317143E+05  0.607016161398E+05
  0.544758597541E+05  0.488349267385E+05  0.438067769304E+05  0.393958515681E+05  0.355851335559E+05
  0.323386660227E+05  0.296051986125E+05  0.273222538240E+05  0.254205071925E+05  0.238281175503E+05
  0.224747188864E+05  0.212948387036E+05  0.202305720767E+05  0.192334168430E+05  0.182652550763E+05
  0.172985376633E+05  0.163157842601E+05  0.153085466018E+05  0.142759991299E+05  0.132233195666E+05
  0.121600060900E+05  0.110982623905E+05  0.100515265323E+05  0.903323327473E+04  0.805582385928E+04
  0.713004440797E+04  0.626446230682E+04  0.546525977772E+04  0.473620153800E+04  0.407876494055E+04
  0.349238341589E+04  0.297476342443E+04  0.252223560186E+04  0.213013889680E+04  0.179314252380E+04
  0.150558532359E+04  0.126174295325E+04  0.105604651541E+04  0.883245245899E+03  0.738516623764E+03
  0.617530370466E+03  0.516474392275E+03  0.432051039440E+03  0.361451637194E+03  0.302316190089E+03
  0.252684489604E+03  0.210943317638E+03  0.175774036381E+03  0.146102744666E+03  0.121054941605E+03
  0.999164960909E+02  0.821003280201E+02  0.671191988279E+02  0.545640604501E+02  0.440873025417E+02
  0.353901214163E+02  0.282132291645E+02  0.223301303045E+02  0.175423128531E+02  0.136757678468E+02
  0.105783560968E+02  0.811792224748E+01  0.618018185948E+01  0.466746343973E+01  0.349697726189E+01
  0.259932549161E+01  0.191699429384E+01  0.140287712778E+01  0.101885146315E+01  0.734434368582E+00
  0.525540606011E+00  0.373361664790E+00  0.263376783340E+00  0.184499379257E+00  0.128355388960E+00
  0.886848533665E-01  0.608545641688E-01  0.414678441289E-01  0.280570369159E-01  0.188447956344E-01
  0.125613863594E-01  0.830671513271E-02  0.544742061529E-02  0.354100109168E-02  0.228046108325E-02
  0.145431126464E-02  0.917908640801E-03  0.573078051512E-03  0.353722339500E-03  0.215727613040E-03
  0.129927597205E-03  0.772331791309E-04  0.452858837095E-04  0.261770751916E-04  0.149077909369E-04
  0.835919019215E-05  0.461198748557E-05  0.250200682287E-05  0.133370069226E-05  0.698041744038E-06
  0.358453641002E-06  0.180460373988E-06  0.890002262231E-07  0.429654457963E-07
 mkinetic energy-density pseudized
  0.154784810883E-05  0.165014910223E-05  0.175921141354E-05  0.187548191445E-05  0.199943701150E-05
  0.213158459804E-05  0.227246613534E-05  0.242265887111E-05  0.258277820475E-05  0.275348020890E-05
  0.293546431759E-05  0.312947619211E-05  0.333631077631E-05  0.355681555374E-05  0.379189402020E-05
  0.404250938566E-05  0.430968852094E-05  0.459452616522E-05  0.489818941157E-05  0.522192248905E-05
  0.556705186077E-05  0.593499165894E-05  0.632724947916E-05  0.674543255758E-05  0.719125435643E-05
  0.766654158471E-05  0.817324168296E-05  0.871343080272E-05  0.928932231325E-05  0.990327587069E-05
  0.105578070864E-04  0.112555978345E-04  0.119995072403E-04  0.127925833959E-04  0.136380758485E-04
  0.145394489158E-04  0.155003958804E-04  0.165248541225E-04  0.176170212532E-04  0.187813723134E-04
  0.200226781099E-04  0.213460247634E-04  0.227568345480E-04  0.242608881088E-04  0.258643481468E-04
  0.275737846705E-04  0.293962019153E-04  0.313390670427E-04  0.334103407360E-04  0.356185098186E-04
  0.379726220271E-04  0.404823230840E-04  0.431578962192E-04  0.460103043046E-04  0.490512347734E-04
  0.522931475069E-04  0.557493258882E-04  0.594339312287E-04  0.633620607921E-04  0.675498096535E-04
  0.720143366468E-04  0.767739346704E-04  0.818481056399E-04  0.872576403943E-04  0.930247038834E-04
  0.991729259851E-04  0.105727498325E-03  0.112715277497E-03  0.120164895099E-03  0.128106875052E-03
  0.136573758664E-03  0.145600237959E-03  0.155223297828E-03  0.165482367561E-03  0.176419482408E-03
  0.188079455802E-03  0.200510062978E-03  0.213762236724E-03  0.227890276060E-03  0.242952068721E-03
  0.259009328339E-03  0.276127847296E-03  0.294377766294E-03  0.313833861737E-03  0.334575852109E-03
  0.356688724595E-03  0.380263083292E-03  0.405395520433E-03  0.432189012138E-03  0.460753340328E-03
  0.491205542516E-03  0.523670391326E-03  0.558280905698E-03  0.595178895881E-03  0.634515544438E-03
  0.676452025652E-03  0.721160165858E-03  0.768823147419E-03  0.819636259217E-03  0.873807696746E-03
  0.931559415068E-03  0.993128038141E-03  0.105876582823E-02  0.112874171939E-02  0.120334241921E-02
  0.128287358340E-02  0.136766106796E-02  0.145805226410E-02  0.155441752135E-02  0.165715166475E-02
  0.176667561221E-02  0.188343809879E-02  0.200791751487E-02  0.214062386581E-02  0.228210086101E-02
  0.243292814107E-02  0.259372365197E-02  0.276514617624E-02  0.294789803121E-02  0.314272794558E-02
  0.335043412592E-02  0.357186752586E-02  0.380793533106E-02  0.405960467442E-02  0.432790659670E-02
  0.461394026866E-02  0.491887749197E-02  0.524396749748E-02  0.559054206016E-02  0.596002095187E-02
  0.635391775412E-02  0.677384605452E-02  0.722152605233E-02  0.769879160002E-02  0.820759770952E-02
  0.875002855398E-02  0.932830599742E-02  0.994479868726E-02  0.106020317468E-01  0.113026971068E-01
  0.120496645191E-01  0.128459932958E-01  0.136949448234E-01  0.145999959012E-01  0.155648529596E-01
  0.165934672150E-01  0.176900508241E-01  0.188590941013E-01  0.201053838716E-01  0.214340230314E-01
  0.228504513967E-01  0.243604679248E-01  0.259702543972E-01  0.276864006612E-01  0.295159315312E-01
  0.314663354585E-01  0.335455950856E-01  0.357622198079E-01  0.381252804729E-01  0.406444463583E-01
  0.433300245753E-01  0.461930020565E-01  0.492450902959E-01  0.524987730195E-01  0.559673569770E-01
  0.596650260573E-01  0.636068989412E-01  0.678090905224E-01  0.722887773374E-01  0.770642672639E-01
  0.821550737627E-01  0.875819949525E-01  0.933671978295E-01  0.995343079594E-01  0.106108504991E+00
  0.113116624360E+00  0.120587265582E+00  0.128550907539E+00  0.137040031215E+00  0.146089250338E+00
  0.155735450430E+00  0.166017936784E+00  0.176978591926E+00  0.188662043153E+00  0.201115840753E+00
  0.214390647578E+00  0.228540440653E+00  0.243622725545E+00  0.259698764271E+00  0.276833817543E+00
  0.295097402201E+00  0.314563564739E+00  0.335311171837E+00  0.357424218903E+00  0.380992157640E+00
  0.406110243710E+00  0.432879905618E+00  0.461409135982E+00  0.491812906384E+00  0.524213607072E+00
  0.558741512794E+00  0.595535276100E+00  0.634742449480E+00  0.676520037730E+00  0.721035081978E+00
  0.768465276790E+00  0.818999621819E+00  0.872839109428E+00  0.930197449715E+00  0.991301834328E+00
  0.105639374042E+01  0.112572977598E+01  0.119958256779E+01  0.127824169290E+01  0.136201465460E+01
  0.145122790361E+01  0.154622790468E+01  0.164738224891E+01  0.175508081141E+01  0.186973695361E+01
  0.199178876894E+01  0.212170037006E+01  0.225996321493E+01  0.240709746839E+01  0.256365339463E+01
  0.273021277501E+01  0.290739034434E+01  0.309583523689E+01  0.329623243206E+01  0.350930418734E+01
  0.373581144388E+01  0.397655518742E+01  0.423237774437E+01  0.450416398921E+01  0.479284243589E+01
  0.509938618108E+01  0.542481366275E+01  0.577018919166E+01  0.613662320745E+01  0.652527220404E+01
  0.693733826152E+01  0.737406811326E+01  0.783675166753E+01  0.832671989287E+01  0.884534196513E+01
  0.939402156174E+01  0.997419217571E+01  0.105873113075E+02  0.112348533777E+02  0.119183011864E+02
  0.126391357308E+02  0.133988241700E+02  0.141988057141E+02  0.150404751905E+02  0.159251640276E+02
  0.168541183755E+02  0.178284740712E+02  0.188492281404E+02  0.199172065227E+02  0.210330277013E+02
  0.221970619221E+02  0.234093857027E+02  0.246697313525E+02  0.259774312682E+02  0.273313568251E+02
  0.287298517651E+02  0.301706600908E+02  0.316508486156E+02  0.331667244982E+02  0.347137483157E+02
  0.362864435077E+02  0.378783033610E+02  0.394816971133E+02  0.410877772333E+02  0.426863905074E+02
  0.442659962078E+02  0.458135953733E+02  0.473146760614E+02  0.487531803597E+02  0.501114999341E+02
  0.513705079352E+02  0.525096361404E+02  0.535070072202E+02  0.543396329204E+02  0.549836896295E+02
  0.554148831431E+02  0.556089142533E+02  0.555420558895E+02  0.551918506501E+02  0.545379343977E+02
  0.535629867827E+02  0.522538027374E+02  0.506024697132E+02  0.486076233211E+02  0.462757386950E+02
  0.436223960726E+02  0.406734366847E+02  0.374658993033E+02  0.340485993713E+02  0.304821828646E+02
  0.268384580654E+02  0.231987835672E+02  0.196512747246E+02  0.162865896805E+02  0.131920781120E+02
  0.104441307708E+02  0.809866718916E+01  0.617985490673E+01  0.466746343973E+01  0.349697726189E+01
  0.259932549161E+01  0.191699429384E+01  0.140287712778E+01  0.101885146315E+01  0.734434368582E+00
  0.525540606011E+00  0.373361664790E+00  0.263376783340E+00  0.184499379257E+00  0.128355388960E+00
  0.886848533665E-01  0.608545641688E-01  0.414678441289E-01  0.280570369159E-01  0.188447956344E-01
  0.125613863594E-01  0.830671513271E-02  0.544742061529E-02  0.354100109168E-02  0.228046108325E-02
  0.145431126464E-02  0.917908640801E-03  0.573078051512E-03  0.353722339500E-03  0.215727613040E-03
  0.129927597205E-03  0.772331791309E-04  0.452858837095E-04  0.261770751916E-04  0.149077909369E-04
  0.835919019215E-05  0.461198748557E-05  0.250200682287E-05  0.133370069226E-05  0.698041744038E-06
  0.358453641002E-06  0.180460373988E-06  0.890002262231E-07  0.429654457963E-07
 local pseudopotential core
 -0.257805282786E+03 -0.257805899820E+03 -0.257806497417E+03 -0.257807076190E+03 -0.257807636729E+03
 -0.257808179611E+03 -0.257808705389E+03 -0.257809214603E+03 -0.257809707774E+03 -0.257810185406E+03
 -0.257810647989E+03 -0.257811095996E+03 -0.257811529885E+03 -0.257811950102E+03 -0.257812357074E+03
 -0.257812751220E+03 -0.257813132942E+03 -0.257813502631E+03 -0.257813860666E+03 -0.257814207411E+03
 -0.257814543223E+03 -0.257814868445E+03 -0.257815183408E+03 -0.257815488436E+03 -0.257815783840E+03
 -0.257816069921E+03 -0.257816346973E+03 -0.257816615278E+03 -0.257816875111E+03 -0.257817126736E+03
 -0.257817370411E+03 -0.257817606384E+03 -0.257817834896E+03 -0.257818056180E+03 -0.257818270461E+03
 -0.257818477958E+03 -0.257818678883E+03 -0.257818873439E+03 -0.257819061824E+03 -0.257819244231E+03
 -0.257819420844E+03 -0.257819591842E+03 -0.257819757399E+03 -0.257819917682E+03 -0.257820072855E+03
 -0.257820223072E+03 -0.257820368487E+03 -0.257820509245E+03 -0.257820645488E+03 -0.257820777352E+03
 -0.257820904971E+03 -0.257821028471E+03 -0.257821147976E+03 -0.257821263604E+03 -0.257821375471E+03
 -0.257821483685E+03 -0.257821588355E+03 -0.257821689583E+03 -0.257821787467E+03 -0.257821882102E+03
 -0.257821973580E+03 -0.257822061989E+03 -0.257822147413E+03 -0.257822229932E+03 -0.257822309624E+03
 -0.257822386562E+03 -0.257822460818E+03 -0.257822532459E+03 -0.257822601548E+03 -0.257822668148E+03
 -0.257822732314E+03 -0.257822794102E+03 -0.257822853563E+03 -0.257822910745E+03 -0.257822965693E+03
 -0.257823018449E+03 -0.257823069051E+03 -0.257823117535E+03 -0.257823163932E+03 -0.257823208272E+03
 -0.257823250579E+03 -0.257823290877E+03 -0.257823329182E+03 -0.257823365510E+03 -0.257823399873E+03
 -0.257823432278E+03 -0.257823462729E+03 -0.257823491225E+03 -0.257823517763E+03 -0.257823542334E+03
 -0.257823564926E+03 -0.257823585520E+03 -0.257823604095E+03 -0.257823620623E+03 -0.257823635074E+03
 -0.257823647408E+03 -0.257823657584E+03 -0.257823665551E+03 -0.257823671256E+03 -0.257823674635E+03
 -0.257823675621E+03 -0.257823674138E+03 -0.257823670102E+03 -0.257823663422E+03 -0.257823653998E+03
 -0.257823641721E+03 -0.257823626473E+03 -0.257823608126E+03 -0.257823586540E+03 -0.257823561565E+03
 -0.257823533040E+03 -0.257823500789E+03 -0.257823464624E+03 -0.257823424343E+03 -0.257823379727E+03
 -0.257823330543E+03 -0.257823276541E+03 -0.257823217450E+03 -0.257823152983E+03 -0.257823082831E+03
 -0.257823006662E+03 -0.257822924123E+03 -0.257822834834E+03 -0.257822738390E+03 -0.257822634358E+03
 -0.257822522275E+03 -0.257822401645E+03 -0.257822271939E+03 -0.257822132593E+03 -0.257821983003E+03
 -0.257821822524E+03 -0.257821650468E+03 -0.257821466102E+03 -0.257821268639E+03 -0.257821057245E+03
 -0.257820831025E+03 -0.257820589028E+03 -0.257820330235E+03 -0.257820053563E+03 -0.257819757855E+03
 -0.257819441875E+03 -0.257819104307E+03 -0.257818743746E+03 -0.257818358695E+03 -0.257817947556E+03
 -0.257817508624E+03 -0.257817040082E+03 -0.257816539993E+03 -0.257816006290E+03 -0.257815436769E+03
 -0.257814829080E+03 -0.257814180718E+03 -0.257813489011E+03 -0.257812751109E+03 -0.257811963975E+03
 -0.257811124371E+03 -0.257810228842E+03 -0.257809273708E+03 -0.257808255042E+03 -0.257807168659E+03
 -0.257806010096E+03 -0.257804774596E+03 -0.257803457086E+03 -0.257802052159E+03 -0.257800554049E+03
 -0.257798956609E+03 -0.257797253286E+03 -0.257795437094E+03 -0.257793500584E+03 -0.257791435817E+03
 -0.257789234326E+03 -0.257786887087E+03 -0.257784384478E+03 -0.257781716244E+03 -0.257778871449E+03
 -0.257775838436E+03 -0.257772604779E+03 -0.257769157230E+03 -0.257765481665E+03 -0.257761563031E+03
 -0.257757385276E+03 -0.257752931293E+03 -0.257748182841E+03 -0.257743120477E+03 -0.257737723477E+03
 -0.257731969743E+03 -0.257725835726E+03 -0.257719296316E+03 -0.257712324752E+03 -0.257704892505E+03
 -0.257696969162E+03 -0.257688522309E+03 -0.257679517390E+03 -0.257669917574E+03 -0.257659683600E+03
 -0.257648773620E+03 -0.257637143029E+03 -0.257624744282E+03 -0.257611526704E+03 -0.257597436280E+03
 -0.257582415443E+03 -0.257566402832E+03 -0.257549333053E+03 -0.257531136408E+03 -0.257511738615E+03
 -0.257491060510E+03 -0.257469017727E+03 -0.257445520358E+03 -0.257420472590E+03 -0.257393772323E+03
 -0.257365310758E+03 -0.257334971964E+03 -0.257302632410E+03 -0.257268160475E+03 -0.257231415925E+03
 -0.257192249349E+03 -0.257150501572E+03 -0.257106003020E+03 -0.257058573052E+03 -0.257008019248E+03
 -0.256954136651E+03 -0.256896706962E+03 -0.256835497690E+03 -0.256770261245E+03 -0.256700733973E+03
 -0.256626635141E+03 -0.256547665853E+03 -0.256463507903E+03 -0.256373822561E+03 -0.256278249286E+03
 -0.256176404362E+03 -0.256067879461E+03 -0.255952240114E+03 -0.255829024101E+03 -0.255697739755E+03
 -0.255557864161E+03 -0.255408841265E+03 -0.255250079881E+03 -0.255080951595E+03 -0.254900788551E+03
 -0.254708881144E+03 -0.254504475583E+03 -0.254286771351E+03 -0.254054918543E+03 -0.253808015090E+03
 -0.253545103867E+03 -0.253265169688E+03 -0.252967136188E+03 -0.252649862606E+03 -0.252312140458E+03
 -0.251952690133E+03 -0.251570157410E+03 -0.251163109904E+03 -0.250730033490E+03 -0.250269328687E+03
 -0.249779307079E+03 -0.249258187764E+03 -0.248704093904E+03 -0.248115049418E+03 -0.247488975872E+03
 -0.246823689649E+03 -0.246116899470E+03 -0.245366204377E+03 -0.244569092284E+03 -0.243722939229E+03
 -0.242825009485E+03 -0.241872456707E+03 -0.240862326318E+03 -0.239791559378E+03 -0.238656998194E+03
 -0.237455394001E+03 -0.236183417051E+03 -0.234837669535E+03 -0.233414701777E+03 -0.231911032247E+03
 -0.230323171967E+03 -0.228647653962E+03 -0.226881068503E+03 -0.225020104922E+03 -0.223061600846E+03
 -0.221002599726E+03 -0.218840417513E+03 -0.216572719228E+03 -0.214197605967E+03 -0.211713712458E+03
 -0.209120314648E+03 -0.206417445734E+03 -0.203606017499E+03 -0.200687941515E+03 -0.197666241475E+03
 -0.194545143206E+03 -0.191330122145E+03 -0.188027878552E+03 -0.184646197550E+03 -0.181193634461E+03
 -0.177678949481E+03 -0.174110212390E+03 -0.170493538990E+03 -0.166831558833E+03 -0.163121991559E+03
 -0.159357046020E+03 -0.155524355817E+03 -0.151609081506E+03 -0.147594259832E+03 -0.143454528596E+03
 -0.139143985504E+03 -0.134624078391E+03 -0.130445677661E+03 -0.126383725401E+03 -0.122411922952E+03
 -0.118527203766E+03 -0.114788561234E+03 -0.111169796768E+03 -0.107665978114E+03 -0.104273237561E+03
 -0.100987888055E+03 -0.978064032670E+02 -0.947254102357E+02 -0.917416615352E+02 -0.888520331127E+02
 -0.860535228293E+02 -0.833432245484E+02 -0.807183395664E+02 -0.781761603136E+02 -0.757140706430E+02
 -0.733295395654E+02 -0.710201187374E+02 -0.687834384990E+02 -0.666172051239E+02 -0.645191979635E+02
 -0.624872669560E+02 -0.605193301340E+02 -0.586133714148E+02 -0.567674383153E+02 -0.549796436577E+02
 -0.532481467194E+02 -0.515711827301E+02 -0.499470317329E+02 -0.483740303490E+02 -0.468505677172E+02
 -0.453750837521E+02 -0.439460675253E+02 -0.425620557000E+02 -0.412216310256E+02 -0.399234208726E+02
 -0.386660958225E+02 -0.374483683040E+02 -0.362689912789E+02 -0.351267569668E+02
 pspotential valence only
 -0.201747513030E+03 -0.201748130074E+03 -0.201748727681E+03 -0.201749306464E+03 -0.201749867014E+03
 -0.201750409908E+03 -0.201750935699E+03 -0.201751444927E+03 -0.201751938112E+03 -0.201752415759E+03
 -0.201752878359E+03 -0.201753326383E+03 -0.201753760291E+03 -0.201754180527E+03 -0.201754587521E+03
 -0.201754981690E+03 -0.201755363436E+03 -0.201755733151E+03 -0.201756091212E+03 -0.201756437987E+03
 -0.201756773831E+03 -0.201757099085E+03 -0.201757414084E+03 -0.201757719150E+03 -0.201758014594E+03
 -0.201758300718E+03 -0.201758577816E+03 -0.201758846170E+03 -0.201759106054E+03 -0.201759357735E+03
 -0.201759601469E+03 -0.201759837505E+03 -0.201760066084E+03 -0.201760287439E+03 -0.201760501797E+03
 -0.201760709375E+03 -0.201760910387E+03 -0.201761105035E+03 -0.201761293519E+03 -0.201761476031E+03
 -0.201761652756E+03 -0.201761823873E+03 -0.201761989558E+03 -0.201762149977E+03 -0.201762305294E+03
 -0.201762455666E+03 -0.201762601245E+03 -0.201762742178E+03 -0.201762878608E+03 -0.201763010672E+03
 -0.201763138503E+03 -0.201763262230E+03 -0.201763381976E+03 -0.201763497862E+03 -0.201763610003E+03
 -0.201763718510E+03 -0.201763823492E+03 -0.201763925052E+03 -0.201764023291E+03 -0.201764118304E+03
 -0.201764210185E+03 -0.201764299024E+03 -0.201764384905E+03 -0.201764467912E+03 -0.201764548125E+03
 -0.201764625618E+03 -0.201764700466E+03 -0.201764772737E+03 -0.201764842499E+03 -0.201764909815E+03
 -0.201764974746E+03 -0.201765037349E+03 -0.201765097678E+03 -0.201765155786E+03 -0.201765211722E+03
 -0.201765265530E+03 -0.201765317254E+03 -0.201765366934E+03 -0.201765414606E+03 -0.201765460306E+03
 -0.201765504062E+03 -0.201765545904E+03 -0.201765585857E+03 -0.201765623941E+03 -0.201765660176E+03
 -0.201765694577E+03 -0.201765727156E+03 -0.201765757921E+03 -0.201765786877E+03 -0.201765814026E+03
 -0.201765839366E+03 -0.201765862891E+03 -0.201765884589E+03 -0.201765904449E+03 -0.201765922449E+03
 -0.201765938569E+03 -0.201765952780E+03 -0.201765965050E+03 -0.201765975340E+03 -0.201765983609E+03
 -0.201765989808E+03 -0.201765993882E+03 -0.201765995770E+03 -0.201765995406E+03 -0.201765992716E+03
 -0.201765987617E+03 -0.201765980022E+03 -0.201765969834E+03 -0.201765956946E+03 -0.201765941244E+03
 -0.201765922605E+03 -0.201765900893E+03 -0.201765875964E+03 -0.201765847660E+03 -0.201765815815E+03
 -0.201765780245E+03 -0.201765740756E+03 -0.201765697138E+03 -0.201765649167E+03 -0.201765596600E+03
 -0.201765539179E+03 -0.201765476627E+03 -0.201765408646E+03 -0.201765334919E+03 -0.201765255105E+03
 -0.201765168840E+03 -0.201765075735E+03 -0.201764975373E+03 -0.201764867311E+03 -0.201764751071E+03
 -0.201764626147E+03 -0.201764491997E+03 -0.201764348040E+03 -0.201764193659E+03 -0.201764028193E+03
 -0.201763850938E+03 -0.201763661140E+03 -0.201763457998E+03 -0.201763240654E+03 -0.201763008194E+03
 -0.201762759644E+03 -0.201762493962E+03 -0.201762210038E+03 -0.201761906689E+03 -0.201761582651E+03
 -0.201761236577E+03 -0.201760867032E+03 -0.201760472481E+03 -0.201760051291E+03 -0.201759601720E+03
 -0.201759121908E+03 -0.201758609875E+03 -0.201758063506E+03 -0.201757480549E+03 -0.201756858600E+03
 -0.201756195097E+03 -0.201755487309E+03 -0.201754732323E+03 -0.201753927033E+03 -0.201753068128E+03
 -0.201752152077E+03 -0.201751175116E+03 -0.201750133233E+03 -0.201749022148E+03 -0.201747837300E+03
 -0.201746573825E+03 -0.201745226538E+03 -0.201743789912E+03 -0.201742258053E+03 -0.201740624679E+03
 -0.201738883090E+03 -0.201737026148E+03 -0.201735046237E+03 -0.201732935244E+03 -0.201730684517E+03
 -0.201728284830E+03 -0.201725726353E+03 -0.201722998602E+03 -0.201720090403E+03 -0.201716989845E+03
 -0.201713684227E+03 -0.201710160012E+03 -0.201706402770E+03 -0.201702397116E+03 -0.201698126652E+03
 -0.201693573896E+03 -0.201688720214E+03 -0.201683545741E+03 -0.201678029304E+03 -0.201672148331E+03
 -0.201665878762E+03 -0.201659194952E+03 -0.201652069564E+03 -0.201644473460E+03 -0.201636375580E+03
 -0.201627742820E+03 -0.201618539895E+03 -0.201608729195E+03 -0.201598270634E+03 -0.201587121489E+03
 -0.201575236223E+03 -0.201562566307E+03 -0.201549060016E+03 -0.201534662229E+03 -0.201519314200E+03
 -0.201502953324E+03 -0.201485512886E+03 -0.201466921792E+03 -0.201447104282E+03 -0.201425979631E+03
 -0.201403461821E+03 -0.201379459202E+03 -0.201353874122E+03 -0.201326602543E+03 -0.201297533624E+03
 -0.201266549285E+03 -0.201233523738E+03 -0.201198322991E+03 -0.201160804321E+03 -0.201120815716E+03
 -0.201078195278E+03 -0.201032770593E+03 -0.200984358062E+03 -0.200932762188E+03 -0.200877774827E+03
 -0.200819174384E+03 -0.200756724969E+03 -0.200690175503E+03 -0.200619258762E+03 -0.200543690381E+03
 -0.200463167787E+03 -0.200377369074E+03 -0.200285951827E+03 -0.200188551859E+03 -0.200084781903E+03
 -0.199974230215E+03 -0.199856459112E+03 -0.199731003439E+03 -0.199597368948E+03 -0.199455030608E+03
 -0.199303430829E+03 -0.199141977607E+03 -0.198970042590E+03 -0.198786959058E+03 -0.198592019831E+03
 -0.198384475090E+03 -0.198163530131E+03 -0.197928343054E+03 -0.197678022377E+03 -0.197411624609E+03
 -0.197128151775E+03 -0.196826548914E+03 -0.196505701562E+03 -0.196164433251E+03 -0.195801503033E+03
 -0.195415603080E+03 -0.195005356375E+03 -0.194569314548E+03 -0.194105955913E+03 -0.193613683751E+03
 -0.193090824918E+03 -0.192535628860E+03 -0.191946267128E+03 -0.191320833497E+03 -0.190657344832E+03
 -0.189953742830E+03 -0.189207896822E+03 -0.188417607826E+03 -0.187580614072E+03 -0.186694598263E+03
 -0.185757196860E+03 -0.184766011735E+03 -0.183718624563E+03 -0.182612614401E+03 -0.181445578930E+03
 -0.180215159924E+03 -0.178919073561E+03 -0.177555146241E+03 -0.176121356673E+03 -0.174615884991E+03
 -0.173037169725E+03 -0.171383973376E+03 -0.169655457267E+03 -0.167851266107E+03 -0.165971622274E+03
 -0.164017429168E+03 -0.161990381904E+03 -0.159893082058E+03 -0.157729150868E+03 -0.155503331946E+03
 -0.153221569878E+03 -0.150891044257E+03 -0.148520129212E+03 -0.146118235247E+03 -0.143695473651E+03
 -0.141262067182E+03 -0.138827427517E+03 -0.136398860826E+03 -0.133980000792E+03 -0.131569346111E+03
 -0.129159616428E+03 -0.126738640111E+03 -0.124291403982E+03 -0.121800345263E+03 -0.119239014375E+03
 -0.116559867055E+03 -0.113715767425E+03 -0.111120225016E+03 -0.108502127522E+03 -0.105846810678E+03
 -0.103162712030E+03 -0.100520142230E+03 -0.979038549892E+02 -0.953192522930E+02 -0.927719678393E+02
 -0.902668363097E+02 -0.878078442616E+02 -0.853981564982E+02 -0.830402045917E+02 -0.807357607242E+02
 -0.784860341288E+02 -0.762916904302E+02 -0.741528795417E+02 -0.720692146490E+02 -0.700397653129E+02
 -0.680630674899E+02 -0.661371852489E+02 -0.642598314624E+02 -0.624285446967E+02 -0.606408983409E+02
 -0.588947068115E+02 -0.571881947008E+02 -0.555201047594E+02 -0.538897359010E+02 -0.522969000474E+02
 -0.507419232297E+02 -0.492253671199E+02 -0.477480577934E+02 -0.463108551897E+02 -0.449145288237E+02
 -0.435596285063E+02 -0.422463804119E+02 -0.409746185798E+02 -0.397437593452E+02 -0.385528205980E+02
 -0.374004807056E+02 -0.362851655874E+02 -0.352051488429E+02 -0.341586499494E+02
 core charge-density (pseudized)
  0.155942777829E-07  0.166249409983E-07  0.177237232166E-07  0.188951265857E-07  0.201439508117E-07
  0.214753128243E-07  0.228946677436E-07  0.244078312316E-07  0.260210033212E-07  0.277407938204E-07
  0.295742493952E-07  0.315288824426E-07  0.336127018717E-07  0.358342459197E-07  0.382026171364E-07
  0.407275196806E-07  0.434192990821E-07  0.462889846318E-07  0.493483345722E-07  0.526098842766E-07
  0.560869976107E-07  0.597939216899E-07  0.637458452554E-07  0.679589609086E-07  0.724505314582E-07
  0.772389606532E-07  0.823438685898E-07  0.877861721032E-07  0.935881704716E-07  0.997736367856E-07
  0.106367915355E-06  0.113398025557E-06  0.120892772540E-06  0.128882865256E-06  0.137401042282E-06
  0.146482205965E-06  0.156163565431E-06  0.166484789044E-06  0.177488166944E-06  0.189218784325E-06
  0.201724706167E-06  0.215057174176E-06  0.229270816744E-06  0.244423872779E-06  0.260578430334E-06
  0.277800681006E-06  0.296161191147E-06  0.315735191003E-06  0.336602882959E-06  0.358849770161E-06
  0.382567006852E-06  0.407851771870E-06  0.434807666819E-06  0.463545140572E-06  0.494181941813E-06
  0.526843601506E-06  0.561663947234E-06  0.598785651543E-06  0.638360816525E-06  0.680551597034E-06
  0.725530865093E-06  0.773482918214E-06  0.824604234530E-06  0.879104277834E-06  0.937206355830E-06
  0.999148535097E-06  0.106518461653E-05  0.113558517527E-05  0.121063866929E-05  0.129065262136E-05
  0.137595487905E-05  0.146689495801E-05  0.156384547406E-05  0.166720366992E-05  0.177739304285E-05
  0.189486507979E-05  0.202010110730E-05  0.215361426368E-05  0.229595160140E-05  0.244769632858E-05
  0.260947019851E-05  0.278193605718E-05  0.296580055906E-05  0.316181706250E-05  0.337078871635E-05
  0.359357175069E-05  0.383107898494E-05  0.408428356791E-05  0.435422296488E-05  0.464200320837E-05
  0.494880342963E-05  0.527588068976E-05  0.562457513001E-05  0.599631546246E-05  0.639262482360E-05
  0.681512701467E-05  0.726555315444E-05  0.774574877164E-05  0.825768136603E-05  0.880344846918E-05
  0.938528623791E-05  0.100055786156E-04  0.106668670988E-04  0.113718611494E-04  0.121234492949E-04
  0.129247109614E-04  0.137789290897E-04  0.146896035843E-04  0.156604656509E-04  0.166954930816E-04
  0.177989265502E-04  0.189752869835E-04  0.202293940811E-04  0.215663860581E-04  0.229917406929E-04
  0.245112977647E-04  0.261312829739E-04  0.278583334426E-04  0.296995248998E-04  0.316624006620E-04
  0.337550025282E-04  0.359859037167E-04  0.383642439754E-04  0.408997670130E-04  0.436028604015E-04
  0.464845981134E-04  0.495567858695E-04  0.528320094798E-04  0.563236863769E-04  0.600461205530E-04
  0.640145611220E-04  0.682452647499E-04  0.727555622052E-04  0.775639293025E-04  0.826900625284E-04
  0.881549596596E-04  0.939810056993E-04  0.100192064485E-03  0.106813576342E-03  0.113872662174E-03
  0.121398234426E-03  0.129421115362E-03  0.137974163140E-03  0.147092406208E-03  0.156813186548E-03
  0.167176312372E-03  0.178224220873E-03  0.190002151706E-03  0.202558331891E-03  0.215944172896E-03
  0.230214480697E-03  0.245427679664E-03  0.261646051183E-03  0.278935987977E-03  0.297368265149E-03
  0.317018329053E-03  0.337966605147E-03  0.360298826075E-03  0.384106381292E-03  0.409486689648E-03
  0.436543596414E-03  0.465387796353E-03  0.496137284523E-03  0.528917836614E-03  0.563863520742E-03
  0.601117242732E-03  0.640831327057E-03  0.683168135748E-03  0.728300727715E-03  0.776413561083E-03
  0.827703241321E-03  0.882379318094E-03  0.940665133959E-03  0.100279872823E-02  0.106903379953E-02
  0.113964073073E-02  0.121490768031E-02  0.129514174429E-02  0.138067019315E-02  0.147184178856E-02
  0.156902818484E-02  0.167262542045E-02  0.178305550515E-02  0.190076810871E-02  0.202624235742E-02
  0.215998874509E-02  0.230255116542E-02  0.245450907315E-02  0.261647978178E-02  0.278912090590E-02
  0.297313295689E-02  0.316926210089E-02  0.337830308854E-02  0.360110236648E-02  0.383856138090E-02
  0.409164008409E-02  0.436136065525E-02  0.464881144740E-02  0.495515117268E-02  0.528161333861E-02
  0.562951094859E-02  0.600024148015E-02  0.639529215472E-02  0.681624551337E-02  0.726478531280E-02
  0.774270275636E-02  0.825190307487E-02  0.879441247201E-02  0.937238544886E-02  0.998811252201E-02
  0.106440283491E-01  0.113427202746E-01  0.120869373092E-01  0.128795995516E-01  0.137238080646E-01
  0.146228552110E-01  0.155802354548E-01  0.165996566295E-01  0.176850516719E-01  0.188405908149E-01
  0.200706942274E-01  0.213800450854E-01  0.227736030474E-01  0.242566181029E-01  0.258346447488E-01
  0.275135564417E-01  0.292995602559E-01  0.311992116657E-01  0.332194293516E-01  0.353675099081E-01
  0.376511423118E-01  0.400784219780E-01  0.426578642084E-01  0.453984167940E-01  0.483094715043E-01
  0.514008741454E-01  0.546829328270E-01  0.581664240163E-01  0.618625959045E-01  0.657831685348E-01
  0.699403300720E-01  0.743467285046E-01  0.790154579815E-01  0.839600388787E-01  0.891943905835E-01
  0.947327958585E-01  0.100589855515E+00  0.106780431984E+00  0.113319580217E+00  0.120222464191E+00
  0.127504257105E+00  0.135180023207E+00  0.143264578969E+00  0.151772331171E+00  0.160717089268E+00
  0.170111849227E+00  0.179968545884E+00  0.190297770712E+00  0.201108451828E+00  0.212407492994E+00
  0.224199368390E+00  0.236485670079E+00  0.249264605258E+00  0.262530440804E+00  0.276272893150E+00
  0.290476462287E+00  0.305119709743E+00  0.320174481732E+00  0.335605080407E+00  0.351367388339E+00
  0.367407954046E+00  0.383663049728E+00  0.400057716300E+00  0.416504815618E+00  0.432904115307E+00
  0.449141438094E+00  0.465087914914E+00  0.480599389363E+00  0.495516030269E+00  0.509662219062E+00
  0.522846789159E+00  0.534863705215E+00  0.545493280499E+00  0.554504040028E+00  0.561655344449E+00
  0.566700893831E+00  0.569393229761E+00  0.569489346450E+00  0.566757504470E+00  0.560985311177E+00
  0.551989086480E+00  0.539624467436E+00  0.523798116074E+00  0.504480277621E+00  0.481717787133E+00
  0.455646938409E+00  0.426505408783E+00  0.394642178640E+00  0.360524101092E+00  0.324737477345E+00
  0.287982697090E+00  0.251059741948E+00  0.214842168177E+00  0.180237142869E+00  0.148129284170E+00
  0.119306547232E+00  0.943673167806E-01  0.736093384098E-01  0.569037664337E-01  0.436813182210E-01
  0.333020973071E-01  0.252187658238E-01  0.189716612463E-01  0.141795871080E-01  0.105302119402E-01
  0.777056101851E-02  0.569797127515E-02  0.415176638152E-02  0.300580622233E-02  0.216197891187E-02
  0.154463665038E-02  0.109592876528E-02  0.771954269808E-03  0.539639161234E-03  0.374237474091E-03
  0.257356736547E-03  0.175415372428E-03  0.118449559267E-03  0.791984115422E-04  0.524078718037E-04
  0.343045314976E-04  0.222002722469E-04  0.141968857392E-04  0.896666038032E-05  0.559041202418E-05
  0.343875667288E-05  0.208577636570E-05  0.124681075125E-05  0.734091550362E-06  0.425460183006E-06
  0.242582823743E-06  0.135981016701E-06  0.748910510042E-07  0.404970586207E-07  0.214862403288E-07
  0.111772759669E-07  0.569691407815E-08  0.284286233156E-08  0.138791752851E-08
 pseudo wavefunction
  0.188819449913E-07  0.201298980193E-07  0.214603312550E-07  0.228786960132E-07  0.243908038989E-07
  0.260028506200E-07  0.277214413735E-07  0.295536179099E-07  0.315068873856E-07  0.335892531232E-07
  0.358092474037E-07  0.381759664272E-07  0.406991075834E-07  0.433890091855E-07  0.462566928307E-07
  0.493139085599E-07  0.525731830021E-07  0.560478707013E-07  0.597522088351E-07  0.637013755502E-07
  0.679115521532E-07  0.723999894119E-07  0.771850782384E-07  0.822864250440E-07  0.877249320746E-07
  0.935228830552E-07  0.997040344950E-07  0.106293713028E-06  0.113318919185E-06  0.120808438026E-06
  0.128792957085E-06  0.137305192106E-06  0.146380021097E-06  0.156054627233E-06  0.166368651215E-06
  0.177364353692E-06  0.189086788418E-06  0.201583986856E-06  0.214907154983E-06  0.229110883098E-06
  0.244253369502E-06  0.260396658958E-06  0.277606896915E-06  0.295954600527E-06  0.315514947594E-06
  0.336368084590E-06  0.358599455058E-06  0.382300149704E-06  0.407567279629E-06  0.434504374232E-06
  0.463221805409E-06  0.493837239791E-06  0.526476120865E-06  0.561272182967E-06  0.598367999241E-06
  0.637915565815E-06  0.680076924585E-06  0.725024827164E-06  0.772943442708E-06  0.824029112527E-06
  0.878491154564E-06  0.936552721054E-06  0.998451712853E-06  0.106444175421E-05  0.113479323195E-05
  0.120979440336E-05  0.128975257727E-05  0.137499537320E-05  0.146587206375E-05  0.156275500568E-05
  0.166604116557E-05  0.177615374637E-05  0.189354392135E-05  0.201869268274E-05  0.215211281253E-05
  0.229435098345E-05  0.244598999889E-05  0.260765118087E-05  0.277999691569E-05  0.296373336803E-05
  0.315961337425E-05  0.336843952699E-05  0.359106746363E-05  0.382840937206E-05  0.408143772815E-05
  0.435118928026E-05  0.463876929700E-05  0.494535609585E-05  0.527220587092E-05  0.562065783989E-05
  0.599213973105E-05  0.638817363294E-05  0.681038223068E-05  0.726049545429E-05  0.774035756652E-05
  0.825193471903E-05  0.879732300789E-05  0.937875706150E-05  0.999861919603E-05  0.106594491759E-04
  0.113639546192E-04  0.121150220908E-04  0.129157289286E-04  0.137693558514E-04  0.146794003991E-04
  0.156495912626E-04  0.166839035590E-04  0.177865751171E-04  0.189621238391E-04  0.202153662088E-04
  0.215514370239E-04  0.229758104306E-04  0.244943223496E-04  0.261131943832E-04  0.278390593014E-04
  0.296789882134E-04  0.316405195326E-04  0.337316898567E-04  0.359610668872E-04  0.383377845239E-04
  0.408715802780E-04  0.435728351562E-04  0.464526161809E-04  0.495227217172E-04  0.527957297959E-04
  0.562850496272E-04  0.600049765169E-04  0.639707504105E-04  0.681986183030E-04  0.727059007707E-04
  0.775110628962E-04  0.826337898775E-04  0.880950676292E-04  0.939172687054E-04  0.100124243896E-03
  0.106741419868E-03  0.113795903256E-03  0.121316591619E-03  0.129334291726E-03  0.137881845638E-03
  0.146994265124E-03  0.156708874935E-03  0.167065465531E-03  0.178106455891E-03  0.189877067056E-03
  0.202425507114E-03  0.215803168387E-03  0.230064837623E-03  0.245268920032E-03  0.261477678101E-03
  0.278757486134E-03  0.297179101568E-03  0.316817954164E-03  0.337754454229E-03  0.360074321149E-03
  0.383868933528E-03  0.409235702380E-03  0.436278468868E-03  0.465107928196E-03  0.495842081371E-03
  0.528606716654E-03  0.563535922643E-03  0.600772635036E-03  0.640469219302E-03  0.682788091561E-03
  0.727902380192E-03  0.775996630799E-03  0.827267557359E-03  0.881924842539E-03  0.940191990381E-03
  0.100230723473E-02  0.106852450702E-02  0.113911446722E-02  0.121436560206E-02  0.129458539480E-02
  0.138010157115E-02  0.147126342630E-02  0.156844323806E-02  0.167203777181E-02  0.178246988294E-02
  0.190019022304E-02  0.202567905638E-02  0.215944819363E-02  0.230204305016E-02  0.245404483681E-02
  0.261607289124E-02  0.278878715878E-02  0.297289083180E-02  0.316913315758E-02  0.337831242479E-02
  0.360127913966E-02  0.383893940303E-02  0.409225850072E-02  0.436226471956E-02  0.465005340279E-02
  0.495679125860E-02  0.528372093677E-02  0.563216588862E-02  0.600353552666E-02  0.639933070064E-02
  0.682114950761E-02  0.727069345434E-02  0.774977399116E-02  0.826031943663E-02  0.880438231380E-02
  0.938414711854E-02  0.100019385417E-01  0.106602301671E-01  0.113616536672E-01  0.121090085195E-01
  0.129052722667E-01  0.137536113415E-01  0.146573924807E-01  0.156201947492E-01  0.166458221940E-01
  0.177383171505E-01  0.189019742162E-01  0.201413549113E-01  0.214613030365E-01  0.228669607408E-01
  0.243637853045E-01  0.259575666387E-01  0.276544454970E-01  0.294609323881E-01  0.313839271698E-01
  0.334307392934E-01  0.356091086597E-01  0.379272270300E-01  0.403937599229E-01  0.430178689094E-01
  0.458092341959E-01  0.487780773630E-01  0.519351840993E-01  0.552919267381E-01  0.588602863681E-01
  0.626528742512E-01  0.666829522289E-01  0.709644517520E-01  0.755119911048E-01  0.803408903298E-01
  0.854671832847E-01  0.909076261773E-01  0.966797018336E-01  0.102801618846E+00  0.109292304638E+00
  0.116171391352E+00  0.123459193322E+00  0.131176674750E+00  0.139345406030E+00  0.147987506981E+00
  0.157125575064E+00  0.166782596436E+00  0.176981837489E+00  0.187746714275E+00  0.199100636988E+00
  0.211066826421E+00  0.223668099069E+00  0.236926617315E+00  0.250863600903E+00  0.265498995692E+00
  0.280851095518E+00  0.296936112888E+00  0.313767694157E+00  0.331356374903E+00  0.349708971396E+00
  0.368827904337E+00  0.388710451629E+00  0.409347927642E+00  0.430724787534E+00  0.452817656568E+00
  0.475594286222E+00  0.499012441211E+00  0.523018724434E+00  0.547547350461E+00  0.572518882482E+00
  0.597838952815E+00  0.623396993160E+00  0.649065007875E+00  0.674696431640E+00  0.700125122026E+00
  0.725164547617E+00  0.749607243304E+00  0.773224615991E+00  0.795767195829E+00  0.816965439737E+00
  0.836531204572E+00  0.854160015982E+00  0.869534264290E+00  0.882327459197E+00  0.892209668523E+00
  0.898854250229E+00  0.901945958720E+00  0.901190462684E+00  0.896325248949E+00  0.887131801543E+00
  0.873448833887E+00  0.855186212121E+00  0.832339037706E+00  0.805001158174E+00  0.773377150407E+00
  0.737791579549E+00  0.698694093400E+00  0.656658689568E+00  0.612375323180E+00  0.566631950169E+00
  0.520285180846E+00  0.474218018180E+00  0.429283752034E+00  0.386236055695E+00  0.345646760390E+00
  0.307815107779E+00  0.272771778287E+00  0.240496434195E+00  0.210945403439E+00  0.184048309225E+00
  0.159712081180E+00  0.137824856702E+00  0.118259717671E+00  0.100878227237E+00  0.855337423404E-01
  0.720744825057E-01  0.603463367559E-01  0.501953928049E-01  0.414701748593E-01  0.340235812139E-01
  0.277145183301E-01  0.224092343338E-01  0.179823604908E-01  0.143176737180E-01  0.113085963286E-01
  0.885845143483E-02  0.688049443513E-02  0.529774337930E-02  0.404263386453E-02  0.305652707192E-02
  0.228910196330E-02  0.169766396373E-02  0.124640179089E-02  0.905622496098E-03  0.650991068987E-03
  0.462796707289E-03  0.325262955633E-03  0.225913978501E-03  0.155004590907E-03  0.105017579849E-03
  0.702284589171E-04  0.463351630103E-04  0.301482902098E-04  0.193362610101E-04
 ae wavefunction
 -0.670519574694E-04 -0.707729870325E-04 -0.746926389163E-04 -0.788219501941E-04 -0.831725524585E-04
 -0.877567050748E-04 -0.925873302552E-04 -0.976780500541E-04 -0.103043225390E-03 -0.108697997212E-03
 -0.114658329932E-03 -0.120941057244E-03 -0.127563930480E-03 -0.134545669628E-03 -0.141906017174E-03
 -0.149665794927E-03 -0.157846963982E-03 -0.166472688021E-03 -0.175567400114E-03 -0.185156873238E-03
 -0.195268294702E-03 -0.205930344723E-03 -0.217173279357E-03 -0.229029018048E-03 -0.241531236050E-03
 -0.254715461980E-03 -0.268619180814E-03 -0.283281942596E-03 -0.298745477206E-03 -0.315053815504E-03
 -0.332253417214E-03 -0.350393305907E-03 -0.369525211493E-03 -0.389703720613E-03 -0.410986435384E-03
 -0.433434140936E-03 -0.457110982238E-03 -0.482084650709E-03 -0.508426581136E-03 -0.536212159486E-03
 -0.565520942163E-03 -0.596436887356E-03 -0.629048599102E-03 -0.663449584763E-03 -0.699738526611E-03
 -0.738019568283E-03 -0.778402616873E-03 -0.821003661494E-03 -0.865945109158E-03 -0.913356138875E-03
 -0.963373074901E-03 -0.101613978013E-02 -0.107180807062E-02 -0.113053815236E-02 -0.119249908134E-02
 -0.125786924811E-02 -0.132683688803E-02 -0.139960061840E-02 -0.147637000388E-02 -0.155736615136E-02
 -0.164282233586E-02 -0.173298465871E-02 -0.182811273966E-02 -0.192848044422E-02 -0.203437664801E-02
 -0.214610603958E-02 -0.226398996334E-02 -0.238836730434E-02 -0.251959541649E-02 -0.265805109607E-02
 -0.280413160213E-02 -0.295825572560E-02 -0.312086490895E-02 -0.329242441788E-02 -0.347342456717E-02
 -0.366438200198E-02 -0.386584103661E-02 -0.407837505218E-02 -0.430258795471E-02 -0.453911569526E-02
 -0.478862785327E-02 -0.505182928449E-02 -0.532946183440E-02 -0.562230611812E-02 -0.593118336734E-02
 -0.625695734486E-02 -0.660053632652E-02 -0.696287515069E-02 -0.734497733432E-02 -0.774789725480E-02
 -0.817274239587E-02 -0.862067565566E-02 -0.909291771398E-02 -0.959074945559E-02 -0.101155144452E-01
 -0.106686214492E-01 -0.112515469979E-01 -0.118658379818E-01 -0.125131142729E-01 -0.131950713620E-01
 -0.139134830013E-01 -0.146702038392E-01 -0.154671720337E-01 -0.163064118278E-01 -0.171900360703E-01
 -0.181202486590E-01 -0.190993468872E-01 -0.201297236658E-01 -0.212138695933E-01 -0.223543748444E-01
 -0.235539308406E-01 -0.248153316677E-01 -0.261414751960E-01 -0.275353638602E-01 -0.290001050480E-01
 -0.305389110437E-01 -0.321550984676E-01 -0.338520871471E-01 -0.356333983508E-01 -0.375026523093E-01
 -0.394635649427E-01 -0.415199437076E-01 -0.436756824698E-01 -0.459347553026E-01 -0.483012091040E-01
 -0.507791549193E-01 -0.533727578467E-01 -0.560862253999E-01 -0.589237941909E-01 -0.618897147911E-01
 -0.649882346222E-01 -0.682235787208E-01 -0.715999282139E-01 -0.751213963393E-01 -0.787920018375E-01
 -0.826156395368E-01 -0.865960479547E-01 -0.907367737313E-01 -0.950411327131E-01 -0.995121675075E-01
 -0.104152601329E+00 -0.108964787970E+00 -0.113950657724E+00 -0.119111659126E+00 -0.124448696356E+00
 -0.129962062210E+00 -0.135651366526E+00 -0.141515460016E+00 -0.147552353473E+00 -0.153759132360E+00
 -0.160131866846E+00 -0.166665517397E+00 -0.173353836111E+00 -0.180189264027E+00 -0.187162824754E+00
 -0.194264014833E+00 -0.201480691335E+00 -0.208798957349E+00 -0.216203046070E+00 -0.223675204371E+00
 -0.231195576840E+00 -0.238742091408E+00 -0.246290347823E+00 -0.253813510350E+00 -0.261282206244E+00
 -0.268664431673E+00 -0.275925466981E+00 -0.283027803388E+00 -0.289931083533E+00 -0.296592058581E+00
 -0.302964565005E+00 -0.308999524478E+00 -0.314644970658E+00 -0.319846106838E+00 -0.324545398537E+00
 -0.328682705146E+00 -0.332195454656E+00 -0.335018865387E+00 -0.337086218482E+00 -0.338329184737E+00
 -0.338678209130E+00 -0.338062956189E+00 -0.336412819052E+00 -0.333657494748E+00 -0.329727627804E+00
 -0.324555523694E+00 -0.318075932982E+00 -0.310226906135E+00 -0.300950717962E+00 -0.290194859499E+00
 -0.277913093749E+00 -0.264066570245E+00 -0.248624991649E+00 -0.231567823792E+00 -0.212885538555E+00
 -0.192580876835E+00 -0.170670116666E+00 -0.147184329185E+00 -0.122170602881E+00 -0.956932141964E-01
 -0.678347203781E-01 -0.386969483411E-01 -0.840185149034E-02  0.229077951066E-01  0.550678918564E-01
  0.878927351139E-01  0.121174991487E+00  0.154685954869E+00  0.188176112562E+00  0.221376044004E+00
  0.253997673505E+00  0.285735898186E+00  0.316270614154E+00  0.345269166842E+00  0.372389252204E+00
  0.397282289995E+00  0.419597274709E+00  0.438985084873E+00  0.455103208016E+00  0.467620825174E+00
  0.476224196235E+00  0.480622284823E+00  0.480552552441E+00  0.475786837883E+00  0.466137225120E+00
  0.451461793613E+00  0.431670138914E+00  0.406728546212E+00  0.376664694600E+00  0.341571765066E+00
  0.301611821663E+00  0.257018334238E+00  0.208097713412E+00  0.155229735588E+00  0.988667482052E-01
  0.395315634076E-01 -0.221860289646E-01 -0.856341711245E-01 -0.150105279047E+00 -0.214843778894E+00
 -0.279055127068E+00 -0.341915894693E+00 -0.402584586415E+00 -0.460212846576E+00 -0.513956911439E+00
 -0.562989614402E+00 -0.606513588471E+00 -0.643775857074E+00 -0.674082803283E+00 -0.696814016178E+00
 -0.711434298888E+00 -0.717503933714E+00 -0.714687398360E+00 -0.702760479207E+00 -0.681615540300E+00
 -0.651264681019E+00 -0.611840617287E+00 -0.563595268426E+00 -0.506896155307E+00 -0.442220790589E+00
 -0.370149276969E+00 -0.291355340780E+00 -0.206596028842E+00 -0.116700292902E+00 -0.225566814554E-01
  0.748996440620E-01  0.174700352420E+00  0.275857627092E+00  0.377377870746E+00  0.478275205380E+00
  0.577584541101E+00  0.674373986441E+00  0.767756372617E+00  0.856899674469E+00  0.941036134685E+00
  0.101946996402E+01  0.109158359794E+01  0.115684262334E+01  0.121479959089E+01  0.126509693089E+01
  0.130746908325E+01  0.134174378341E+01  0.136784231985E+01  0.138577855640E+01  0.139565657178E+01
  0.139766688173E+01  0.139208128975E+01  0.137924650084E+01  0.135957665365E+01  0.133354496913E+01
  0.130167472143E+01  0.126452974024E+01  0.122270466287E+01  0.117681512716E+01  0.112748810984E+01
  0.107535256628E+01  0.102103054488E+01  0.965128907374E+00  0.908231783960E+00  0.850893874640E+00
  0.793634635741E+00  0.736933524425E+00  0.681226173338E+00  0.626901612118E+00  0.574300459012E+00
  0.523714043124E+00  0.475384400998E+00  0.429505087203E+00  0.386222742569E+00  0.345639351568E+00
  0.307815107779E+00  0.272771778287E+00  0.240496434195E+00  0.210945403439E+00  0.184048309225E+00
  0.159712081180E+00  0.137824856702E+00  0.118259717671E+00  0.100878227237E+00  0.855337423404E-01
  0.720744825057E-01  0.603463367559E-01  0.501953928049E-01  0.414701748593E-01  0.340235812139E-01
  0.277145183301E-01  0.224092343338E-01  0.179823604908E-01  0.143176737180E-01  0.113085963286E-01
  0.885845143483E-02  0.688049443513E-02  0.529774337930E-02  0.404263386453E-02  0.305652707192E-02
  0.228910196330E-02  0.169766396373E-02  0.124640179089E-02  0.905622496098E-03  0.650991068987E-03
  0.462796707289E-03  0.325262955633E-03  0.225913978501E-03  0.155004590907E-03  0.105017579849E-03
  0.702284589171E-04  0.463351630103E-04  0.301482902098E-04  0.193362610101E-04
 pseudo wavefunction
 -0.474810134722E-08 -0.506191475030E-08 -0.539646883333E-08 -0.575313439752E-08 -0.613337284360E-08
 -0.653874215978E-08 -0.697090330542E-08 -0.743162701665E-08 -0.792280106180E-08 -0.844643797628E-08
 -0.900468330880E-08 -0.959982441249E-08 -0.102342998171E-07 -0.109107092206E-07 -0.116318241413E-07
 -0.124005992736E-07 -0.132201845948E-07 -0.140939382717E-07 -0.150254404202E-07 -0.160185077747E-07
 -0.170772093266E-07 -0.182058829966E-07 -0.194091534088E-07 -0.206919508399E-07 -0.220595314200E-07
 -0.235174986694E-07 -0.250718264583E-07 -0.267288834841E-07 -0.284954593664E-07 -0.303787924667E-07
 -0.323865995470E-07 -0.345271073882E-07 -0.368090864985E-07 -0.392418870494E-07 -0.418354771872E-07
 -0.446004838765E-07 -0.475482364425E-07 -0.506908129920E-07 -0.540410899019E-07 -0.576127945789E-07
 -0.614205617057E-07 -0.654799932047E-07 -0.698077221657E-07 -0.744214809974E-07 -0.793401740840E-07
 -0.845839552436E-07 -0.901743103061E-07 -0.961341451485E-07 -0.102487879549E-06 -0.109261547244E-06
 -0.116482902597E-06 -0.124181534320E-06 -0.132388986709E-06 -0.141138888892E-06 -0.150467092618E-06
 -0.160411819159E-06 -0.171013815911E-06 -0.182316523354E-06 -0.194366253043E-06 -0.207212377361E-06
 -0.220907531814E-06 -0.235507830699E-06 -0.251073097022E-06 -0.267667107614E-06 -0.285357854442E-06
 -0.304217823200E-06 -0.324324290301E-06 -0.345759639507E-06 -0.368611699477E-06 -0.392974103629E-06
 -0.418946673786E-06 -0.446635829173E-06 -0.476155022448E-06 -0.507625204548E-06 -0.541175320256E-06
 -0.576942836526E-06 -0.615074305716E-06 -0.655725966047E-06 -0.699064381752E-06 -0.745267125522E-06
 -0.794523506060E-06 -0.847035343716E-06 -0.903017797380E-06 -0.962700246027E-06 -0.102632722851E-05
 -0.109415944549E-05 -0.116647482753E-05 -0.124356967381E-05 -0.132575986611E-05 -0.141338216298E-05
 -0.150679557946E-05 -0.160638285794E-05 -0.171255203630E-05 -0.182573811959E-05 -0.194640486223E-05
 -0.207504666796E-05 -0.221219061535E-05 -0.235839861717E-05 -0.251426972238E-05 -0.268044257035E-05
 -0.285759800715E-05 -0.304646187477E-05 -0.324780798456E-05 -0.346246128731E-05 -0.369130125256E-05
 -0.393526547139E-05 -0.419535349711E-05 -0.447263093979E-05 -0.476823383126E-05 -0.508337327850E-05
 -0.541934042445E-05 -0.577751173658E-05 -0.615935464474E-05 -0.656643355157E-05 -0.700041623978E-05
 -0.746308070281E-05 -0.795632242655E-05 -0.848216215203E-05 -0.904275415090E-05 -0.964039504728E-05
 -0.102775332223E-04 -0.109567788399E-04 -0.116809145338E-04 -0.124529068016E-04 -0.132759181495E-04
 -0.141533200402E-04 -0.150887066946E-04 -0.160859098050E-04 -0.171490142193E-04 -0.182823746605E-04
 -0.194906335493E-04 -0.207787400028E-04 -0.221519700867E-04 -0.236159484038E-04 -0.251766711062E-04
 -0.268405304254E-04 -0.286143408197E-04 -0.305053668466E-04 -0.325213528713E-04 -0.346705547345E-04
 -0.369617735067E-04 -0.394043914665E-04 -0.420084104491E-04 -0.447844927206E-04 -0.477440045435E-04
 -0.508990626099E-04 -0.542625835312E-04 -0.578483365833E-04 -0.616709999213E-04 -0.657462204904E-04
 -0.700906778747E-04 -0.747221523414E-04 -0.796595973538E-04 -0.849232168453E-04 -0.905345475646E-04
 -0.965165468211E-04 -0.102893685984E-03 -0.109692050107E-03 -0.116939444078E-03 -0.124665505714E-03
 -0.132901826253E-03 -0.141682078723E-03 -0.151042154694E-03 -0.161020309949E-03 -0.171657319656E-03
 -0.182996643653E-03 -0.195084602476E-03 -0.207970564842E-03 -0.221707147302E-03 -0.236350426837E-03
 -0.251960167235E-03 -0.268600060102E-03 -0.286337981443E-03 -0.305246264793E-03 -0.325401991921E-03
 -0.346887302231E-03 -0.369789721995E-03 -0.394202514662E-03 -0.420225053549E-03 -0.447963218262E-03
 -0.477529816324E-03 -0.509045031516E-03 -0.542636900553E-03 -0.578441819787E-03 -0.616605083720E-03
 -0.657281457199E-03 -0.700635783266E-03 -0.746843628713E-03 -0.796091969516E-03 -0.848579918380E-03
 -0.904519496768E-03 -0.964136453855E-03 -0.102767113494E-02 -0.109537940196E-02 -0.116753360887E-02
 -0.124442363458E-02 -0.132635797648E-02 -0.141366490740E-02 -0.150669369904E-02 -0.160581591489E-02
 -0.171142677569E-02 -0.182394660052E-02 -0.194382232649E-02 -0.207152910996E-02 -0.220757201216E-02
 -0.235248777191E-02 -0.250684666786E-02 -0.267125447239E-02 -0.284635449917E-02 -0.303282974555E-02
 -0.323140513082E-02 -0.344284983035E-02 -0.366797970502E-02 -0.390765982433E-02 -0.416280708039E-02
 -0.443439288861E-02 -0.472344596940E-02 -0.503105520301E-02 -0.535837254785E-02 -0.570661600952E-02
 -0.607707264523E-02 -0.647110158444E-02 -0.689013704279E-02 -0.733569130137E-02 -0.780935761849E-02
 -0.831281303440E-02 -0.884782102281E-02 -0.941623393469E-02 -0.100199951706E-01 -0.106611410073E-01
 -0.113418019927E-01 -0.120642038085E-01 -0.128306674865E-01 -0.136436088435E-01 -0.145055369842E-01
 -0.154190516960E-01 -0.163868395344E-01 -0.174116683715E-01 -0.184963801457E-01 -0.196438815168E-01
 -0.208571320886E-01 -0.221391298186E-01 -0.234928931832E-01 -0.249214396117E-01 -0.264277596405E-01
 -0.280147861740E-01 -0.296853581585E-01 -0.314421779005E-01 -0.332877611654E-01 -0.352243790984E-01
 -0.372539909043E-01 -0.393781661067E-01 -0.415979950898E-01 -0.439139864939E-01 -0.463259499041E-01
 -0.488328621271E-01 -0.514327152130E-01 -0.541223442287E-01 -0.568972326525E-01 -0.597512931203E-01
 -0.626766211359E-01 -0.656632192505E-01 -0.686986891481E-01 -0.717678890371E-01 -0.748525537707E-01
 -0.779308752103E-01 -0.809770405290E-01 -0.839607264516E-01 -0.868465478671E-01 -0.895934598725E-01
 -0.921541131421E-01 -0.944741636126E-01 -0.964915388903E-01 -0.981356655644E-01 -0.993266638321E-01
 -0.999745185599E-01 -0.999782392085E-01 -0.992250250074E-01 -0.975894564538E-01 -0.949327397069E-01
 -0.911020368147E-01 -0.859299219820E-01 -0.792340122903E-01 -0.708168303765E-01 -0.604659664826E-01
 -0.479546178240E-01 -0.330425941221E-01 -0.154778889643E-01  0.500107319037E-02  0.286623958916E-01
  0.557767509237E-01  0.866123732699E-01  0.121428887905E+00  0.160469857146E+00  0.203953959480E+00
  0.252064746580E+00  0.304938977969E+00  0.362653606350E+00  0.425211584608E+00  0.492526791728E+00
  0.564408532154E+00  0.640546253236E+00  0.720495347842E+00  0.803665160201E+00  0.889310584193E+00
  0.976528919859E+00  0.106426391292E+01  0.115131911052E+01  0.123638277950E+01  0.131806659296E+01
  0.139496199005E+01  0.146593666817E+01  0.153035508747E+01  0.158764301369E+01  0.000000000000E+00
  0.000000000000E+00  0.000000000000E+00  0.000000000000E+00  0.000000000000E+00  0.000000000000E+00
  0.000000000000E+00  0.000000000000E+00  0.000000000000E+00  0.000000000000E+00  0.000000000000E+00
  0.000000000000E+00  0.000000000000E+00  0.000000000000E+00  0.000000000000E+00  0.000000000000E+00
  0.000000000000E+00  0.000000000000E+00  0.000000000000E+00  0.000000000000E+00  0.000000000000E+00
  0.000000000000E+00  0.000000000000E+00  0.000000000000E+00  0.000000000000E+00  0.000000000000E+00
  0.000000000000E+00  0.000000000000E+00  0.000000000000E+00  0.000000000000E+00  0.000000000000E+00
  0.000000000000E+00  0.000000000000E+00  0.000000000000E+00  0.000000000000E+00
 ae wavefunction
  0.445167378647E-04  0.469871840072E-04  0.495894983155E-04  0.523310084636E-04  0.552194368351E-04
  0.582629226007E-04  0.614700450048E-04  0.648498479262E-04  0.684118657867E-04  0.721661508808E-04
  0.761233022112E-04  0.802944959106E-04  0.846915173428E-04  0.893267949767E-04  0.942134361320E-04
  0.993652647043E-04  0.104796860980E-03  0.110523603657E-03  0.116561714199E-03  0.122928303652E-03
  0.129641422056E-03  0.136720110615E-03  0.144184456750E-03  0.152055652233E-03  0.160356054539E-03
  0.169109251617E-03  0.178340130268E-03  0.188074948320E-03  0.198341410824E-03  0.209168750482E-03
  0.220587812548E-03  0.232631144451E-03  0.245333090393E-03  0.258729891197E-03  0.272859789697E-03
  0.287763141973E-03  0.303482534742E-03  0.320062909254E-03  0.337551692029E-03  0.355998932822E-03
  0.375457450193E-03  0.395982985097E-03  0.417634362927E-03  0.440473664446E-03  0.464566406102E-03
  0.489981730202E-03  0.516792605479E-03  0.545076038582E-03  0.574913297073E-03  0.606390144512E-03
  0.639597088263E-03  0.674629640663E-03  0.711588594235E-03  0.750580311651E-03  0.791717031180E-03
  0.835117188388E-03  0.880905754888E-03  0.929214594954E-03  0.980182840879E-03  0.103395728794E-02
  0.109069280991E-02  0.115055279603E-02  0.121370961049E-02  0.128034507533E-02  0.135065097786E-02
  0.142482960367E-02  0.150309429621E-02  0.158567004423E-02  0.167279409799E-02  0.176471661556E-02
  0.186170134025E-02  0.196402631041E-02  0.207198460267E-02  0.218588510991E-02  0.230605335497E-02
  0.243283234134E-02  0.256658344192E-02  0.270768732685E-02  0.285654493156E-02  0.301357846585E-02
  0.317923246509E-02  0.335397488414E-02  0.353829823484E-02  0.373272076762E-02  0.393778769753E-02
  0.415407247523E-02  0.438217810263E-02  0.462273849341E-02  0.487641987770E-02  0.514392225041E-02
  0.542598086213E-02  0.572336775114E-02  0.603689331480E-02  0.636740791812E-02  0.671580353651E-02
  0.708301542956E-02  0.747002384184E-02  0.787785572591E-02  0.830758648216E-02  0.876034170926E-02
  0.923729895771E-02  0.973968947851E-02  0.102687999573E-01  0.108259742235E-01  0.114126149223E-01
  0.120301851365E-01  0.126802099423E-01  0.133642778832E-01  0.140840423436E-01  0.148412228000E-01
  0.156376059287E-01  0.164750465447E-01  0.173554683429E-01  0.182808644139E-01  0.192532974983E-01
  0.202748999468E-01  0.213478733444E-01  0.224744877568E-01  0.236570805541E-01  0.248980547599E-01
  0.261998768738E-01  0.275650741083E-01  0.289962309785E-01  0.304959851780E-01  0.320670226697E-01
  0.337120719164E-01  0.354338971701E-01  0.372352907358E-01  0.391190641185E-01  0.410880379611E-01
  0.431450306718E-01  0.452928456388E-01  0.475342569249E-01  0.498719933293E-01  0.523087207033E-01
  0.548470224015E-01  0.574893777492E-01  0.602381384050E-01  0.630955024978E-01  0.660634864182E-01
  0.691438941456E-01  0.723382839984E-01  0.756479326990E-01  0.790737966522E-01  0.826164703484E-01
  0.862761418138E-01  0.900525450472E-01  0.939449093996E-01  0.979519058800E-01  0.102071590394E+00
  0.106301343952E+00  0.110637809934E+00  0.115076828510E+00  0.119613368399E+00  0.124241456174E+00
  0.128954103399E+00  0.133743231934E+00  0.138599597826E+00  0.143512714286E+00  0.148470774312E+00
  0.153460573633E+00  0.158467434708E+00  0.163475132617E+00  0.168465823777E+00  0.173419978489E+00
  0.178316318456E+00  0.183131760505E+00  0.187841367939E+00  0.192418311090E+00  0.196833838912E+00
  0.201057263660E+00  0.205055960966E+00  0.208795387810E+00  0.212239121042E+00  0.215348919170E+00
  0.218084810142E+00  0.220405207827E+00  0.222267059779E+00  0.223626028824E+00  0.224436710827E+00
  0.224652890904E+00  0.224227840160E+00  0.223114654872E+00  0.221266639807E+00  0.218637737079E+00
  0.215183001571E+00  0.210859123496E+00  0.205624998089E+00  0.199442341750E+00  0.192276353185E+00
  0.184096417172E+00  0.174876847607E+00  0.164597665304E+00  0.153245404841E+00  0.140813943379E+00
  0.127305342969E+00  0.112730696366E+00  0.971109648343E-01  0.804777948571E-01  0.628742991372E-01
  0.443557857602E-01  0.249904180084E-01  0.485978604817E-02 -0.159406293133E-01 -0.373011213321E-01
 -0.590975712883E-01 -0.811914321615E-01 -0.103429901439E+00 -0.125646300816E+00 -0.147660678667E+00
 -0.169280649812E+00 -0.190302486961E+00 -0.210512479471E+00 -0.229688576981E+00 -0.247602335967E+00
 -0.264021183588E+00 -0.278711002754E+00 -0.291439025724E+00 -0.301977008027E+00 -0.310104645437E+00
 -0.315613195036E+00 -0.318309259521E+00 -0.318018687826E+00 -0.314590535874E+00 -0.307901022604E+00
 -0.297857410087E+00 -0.284401732296E+00 -0.267514293411E+00 -0.247216853029E+00 -0.223575412229E+00
 -0.196702511854E+00 -0.166758953372E+00 -0.133954854029E+00 -0.985499525330E-01 -0.608530896149E-01
 -0.212207996658E-01  0.199450352806E-01  0.622004999452E-01  0.105063937270E+00  0.148021194341E+00
  0.190531750450E+00  0.232035582502E+00  0.271960549515E+00  0.309730068277E+00  0.344770991500E+00
  0.376521898702E+00  0.404442229539E+00  0.428022377739E+00  0.446794059743E+00  0.460339952400E+00
  0.468302125090E+00  0.470389330190E+00  0.466383276158E+00  0.456143839319E+00  0.439613045920E+00
  0.416817640398E+00  0.387870124880E+00  0.352968252933E+00  0.312393041929E+00  0.266505417062E+00
  0.215741622174E+00  0.160607539225E+00  0.101672057939E+00  0.395596345263E-01 -0.250578245370E-01
 -0.914696190587E-01 -0.158935317008E+00 -0.226694084381E+00 -0.293974142353E+00 -0.360002207316E+00
 -0.424012766586E+00 -0.485257041254E+00 -0.543011486581E+00 -0.596585687800E+00 -0.645329526473E+00
 -0.688639539386E+00 -0.725964465124E+00 -0.756810058786E+00 -0.780743312955E+00 -0.797396208060E+00
 -0.806469028208E+00 -0.807733157895E+00 -0.801033192691E+00 -0.786288190699E+00 -0.763491939791E+00
 -0.732712196662E+00 -0.694088911538E+00 -0.647831511251E+00 -0.594215330983E+00 -0.533577313702E+00
 -0.466311103539E+00 -0.392861665631E+00 -0.313719570360E+00 -0.229415071644E+00 -0.140512113997E+00
 -0.476023884189E-01  0.487004383690E-01  0.147766210033E+00  0.248953376782E+00  0.351613610925E+00
  0.455095868820E+00  0.558749849119E+00  0.661928815900E+00  0.763991772415E+00  0.864304983309E+00
  0.962242845767E+00  0.105718812681E+01  0.114853163107E+01  0.123567139193E+01  0.131801166845E+01
  0.139496199005E+01  0.146593666817E+01  0.153035508747E+01  0.158764301369E+01  0.000000000000E+00
  0.000000000000E+00  0.000000000000E+00  0.000000000000E+00  0.000000000000E+00  0.000000000000E+00
  0.000000000000E+00  0.000000000000E+00  0.000000000000E+00  0.000000000000E+00  0.000000000000E+00
  0.000000000000E+00  0.000000000000E+00  0.000000000000E+00  0.000000000000E+00  0.000000000000E+00
  0.000000000000E+00  0.000000000000E+00  0.000000000000E+00  0.000000000000E+00  0.000000000000E+00
  0.000000000000E+00  0.000000000000E+00  0.000000000000E+00  0.000000000000E+00  0.000000000000E+00
  0.000000000000E+00  0.000000000000E+00  0.000000000000E+00  0.000000000000E+00  0.000000000000E+00
  0.000000000000E+00  0.000000000000E+00  0.000000000000E+00  0.000000000000E+00
 pseudo wavefunction
  0.130496456234E-11  0.143645156951E-11  0.158118708433E-11  0.174050601401E-11  0.191587776975E-11
  0.210891981927E-11  0.232141260479E-11  0.255531596422E-11  0.281278720690E-11  0.309620101063E-11
  0.340817132353E-11  0.375157547266E-11  0.412958070184E-11  0.454567338340E-11  0.500369117330E-11
  0.550785840605E-11  0.606282505616E-11  0.667370962519E-11  0.734614635008E-11  0.808633716817E-11
  0.890110891816E-11  0.979797630459E-11  0.107852112065E-10  0.118719189697E-10  0.130681223860E-10
  0.143848541341E-10  0.158342585352E-10  0.174297035607E-10  0.191859041261E-10  0.211190578078E-10
  0.232469942346E-10  0.255893395317E-10  0.281676973343E-10  0.310058480388E-10  0.341299681321E-10
  0.375688716186E-10  0.413542757744E-10  0.455210936779E-10  0.501077562158E-10  0.551565665339E-10
  0.607140902025E-10  0.668315846935E-10  0.735654721324E-10  0.809778596835E-10  0.891371123684E-10
  0.981184836021E-10  0.108004809260E-09  0.118887271680E-09  0.130866240641E-09  0.144052199086E-09
  0.158566762106E-09  0.174543798610E-09  0.192130666006E-09  0.211489569288E-09  0.232799057060E-09
  0.256255668306E-09  0.282075745079E-09  0.310497427837E-09  0.341782851830E-09  0.376220564783E-09
  0.414128188195E-09  0.455855346777E-09  0.501786893059E-09  0.552346456910E-09  0.608000352692E-09
  0.669261880107E-09  0.736696058382E-09  0.810924837466E-09  0.892632834305E-09  0.982573647090E-09
  0.108157680572E-08  0.119055542261E-08  0.131051461430E-08  0.144256077174E-08  0.158791176454E-08
  0.174790817338E-08  0.192402565427E-08  0.211788854849E-08  0.233128486396E-08  0.256618276600E-08
  0.282474872977E-08  0.310936752163E-08  0.342266419385E-08  0.376752829538E-08  0.414714052217E-08
  0.456500205258E-08  0.502496683868E-08  0.553127715103E-08  0.608860270500E-08  0.670208372921E-08
  0.737737837358E-08  0.812071489396E-08  0.893894909482E-08  0.983962755961E-08  0.108310572521E-07
  0.119223821306E-07  0.131236674811E-07  0.144459927483E-07  0.159015537192E-07  0.175037750028E-07
  0.192674338422E-07  0.212087964027E-07  0.233457677897E-07  0.256980571839E-07  0.282873596126E-07
  0.311375560371E-07  0.342749335982E-07  0.377284280538E-07  0.415298906417E-07  0.457143818302E-07
  0.503204946654E-07  0.553907106960E-07  0.609717917581E-07  0.671152112336E-07  0.738776287580E-07
  0.813214127551E-07  0.895152156176E-07  0.985346068367E-07  0.108462769918E-06  0.119391269513E-06
  0.131420895831E-06  0.144662594132E-06  0.159238487853E-06  0.175283004817E-06  0.192944116893E-06
  0.212384704548E-06  0.233784058868E-06  0.257339534890E-06  0.283268371494E-06  0.311809694620E-06
  0.343226722297E-06  0.377809191781E-06  0.415876031201E-06  0.457778300321E-06  0.503902427523E-06
  0.554673772853E-06  0.610560549961E-06  0.672078143070E-06  0.739793858767E-06  0.814332156390E-06
  0.896380405204E-06  0.986695221413E-06  0.108610944338E-05  0.119553980929E-05  0.131599540804E-05
  0.144858698111E-05  0.159453716110E-05  0.175519174125E-05  0.193203207966E-05  0.212668875246E-05
  0.234095658152E-05  0.257681117510E-05  0.283642713365E-05  0.312219808819E-05  0.343675875579E-05
  0.378300921478E-05  0.416414162324E-05  0.458366962620E-05  0.504546072198E-05  0.555377188524E-05
  0.611328877391E-05  0.672916888038E-05  0.740708902307E-05  0.815329761465E-05  0.897467218650E-05
  0.987878269736E-05  0.108739612069E-04  0.119693785533E-04  0.131751287369E-04  0.145023217846E-04
  0.159631859435E-04  0.175711801415E-04  0.193411177417E-04  0.212893027243E-04  0.234336795385E-04
  0.257939979957E-04  0.283919947067E-04  0.312515927197E-04  0.343991211782E-04  0.378635569992E-04
  0.416767907714E-04  0.458739192915E-04  0.504935673948E-04  0.555782420013E-04  0.611747215865E-04
  0.673344846028E-04  0.741141807255E-04  0.815761491806E-04  0.897889888254E-04  0.988281851194E-04
  0.108776799617E-03  0.119726228175E-03  0.131777034661E-03  0.145039867619E-03  0.159636468074E-03
  0.175700777432E-03  0.193380155333E-03  0.212836718225E-03  0.234248810488E-03  0.257812621066E-03
  0.283743959792E-03  0.312280208941E-03  0.343682467036E-03  0.378237903501E-03  0.416262344526E-03
  0.458103112405E-03  0.504142142654E-03  0.554799405476E-03  0.610536660563E-03  0.671861576855E-03
  0.739332251726E-03  0.813562167168E-03  0.895225623821E-03  0.985063697329E-03  0.108389076531E-02
  0.119260165740E-02  0.131217948515E-02  0.144370421347E-02  0.158836204012E-02  0.174745565521E-02
  0.192241545829E-02  0.211481181654E-02  0.232636845381E-02  0.255897706667E-02  0.281471327047E-02
  0.309585398520E-02  0.340489637801E-02  0.374457848626E-02  0.411790165200E-02  0.452815490559E-02
  0.497894144250E-02  0.547420734347E-02  0.601827269296E-02  0.661586525511E-02  0.727215686889E-02
  0.799280272469E-02  0.878398368308E-02  0.965245179167E-02  0.106055791476E-01  0.116514102402E-01
  0.127987178905E-01  0.140570628777E-01  0.154368573121E-01  0.169494317683E-01  0.186071061419E-01
  0.204232641235E-01  0.224124311016E-01  0.245903552076E-01  0.269740910905E-01  0.295820858663E-01
  0.324342665135E-01  0.355521277776E-01  0.389588194108E-01  0.426792312892E-01  0.467400746230E-01
  0.511699571006E-01  0.559994493745E-01  0.612611398057E-01  0.669896738298E-01  0.732217736832E-01
  0.799962335363E-01  0.873538843161E-01  0.953375216698E-01  0.103991789621E+00  0.113363011524E+00
  0.123498958922E+00  0.134448547922E+00  0.146261451687E+00  0.158987616719E+00  0.172676669786E+00
  0.187377201692E+00  0.203135913750E+00  0.219996612819E+00  0.237999041362E+00  0.257177530221E+00
  0.277559463980E+00  0.299163552086E+00  0.321997903582E+00  0.346057909693E+00  0.371323946876E+00
  0.397758923648E+00  0.425305707850E+00  0.453884487226E+00  0.483390135589E+00  0.513689679344E+00
  0.544619984730E+00  0.575985814362E+00  0.607558431603E+00  0.639074961772E+00  0.670238747986E+00
  0.700720963732E+00  0.730163760131E+00  0.758185228157E+00  0.784386438416E+00  0.808360775799E+00
  0.829705704448E+00  0.848036970323E+00  0.863005064311E+00  0.874313519349E+00  0.881738294171E+00
  0.885147102714E+00  0.884517089068E+00  0.879948742286E+00  0.871673429815E+00  0.860051461460E+00
  0.845557263720E+00  0.828748164320E+00  0.810213608443E+00  0.790502529098E+00  0.770028267619E+00
  0.748952792707E+00  0.727244472633E+00  0.704972675341E+00  0.682225010146E+00  0.659083267122E+00
  0.635624365492E+00  0.611921320861E+00  0.588044165399E+00  0.564060766304E+00  0.540037536192E+00
  0.516040004264E+00  0.492133266569E+00  0.468382265262E+00  0.444851897047E+00  0.421606896024E+00
  0.398711472755E+00  0.376228691230E+00  0.354219606753E+00  0.332742222058E+00  0.311850359133E+00
  0.291592566743E+00  0.272011185638E+00  0.253141673427E+00  0.235012254318E+00  0.217643915175E+00
  0.201050766312E+00  0.185240471361E+00  0.170215282458E+00  0.155972760366E+00  0.142506721694E+00
  0.129808073580E+00  0.117865511852E+00  0.106666037335E+00  0.961952715999E-01  0.864375811071E-01
  0.773760433879E-01  0.689923065004E-01  0.612664009376E-01  0.541765610162E-01
 ae wavefunction
  0.212739993118E-07  0.231837845821E-07  0.252551327186E-07  0.275025257911E-07  0.299416851214E-07
  0.325896827041E-07  0.354650623086E-07  0.385879711339E-07  0.419803029712E-07  0.456658539152E-07
  0.496704917565E-07  0.540223402904E-07  0.587519798846E-07  0.638926657749E-07  0.694805656819E-07
  0.755550184937E-07  0.821588159104E-07  0.893385091207E-07  0.971447427679E-07  0.105632618666E-06
  0.114862091949E-06  0.124898402585E-06  0.135812545443E-06  0.147681782400E-06  0.160590200291E-06
  0.174629318840E-06  0.189898753110E-06  0.206506935397E-06  0.224571901955E-06  0.244222150450E-06
  0.265597574521E-06  0.288850482501E-06  0.314146707892E-06  0.341666819963E-06  0.371607443582E-06
  0.404182698183E-06  0.439625766774E-06  0.478190606781E-06  0.520153815680E-06  0.565816665540E-06
  0.615507321867E-06  0.669583263591E-06  0.728433922560E-06  0.792483562598E-06  0.862194420017E-06
  0.938070129502E-06  0.102065946146E-05  0.111056039933E-05  0.120842458799E-05  0.131496218715E-05
  0.143094716698E-05  0.155722308623E-05  0.169470939724E-05  0.184440832595E-05  0.200741237967E-05
  0.218491253997E-05  0.237820720359E-05  0.258871193964E-05  0.281797013802E-05  0.306766463040E-05
  0.333963037290E-05  0.363586828734E-05  0.395856036719E-05  0.431008616343E-05  0.469304077656E-05
  0.511025449191E-05  0.556481420822E-05  0.606008682260E-05  0.659974475005E-05  0.718779377147E-05
  0.782860342149E-05  0.852694014659E-05  0.928800348429E-05  0.101174655367E-04  0.110215140359E-04
  0.120068993251E-04  0.130809856078E-04  0.142518068491E-04  0.155281277452E-04  0.169195102164E-04
  0.184363859151E-04  0.200901352862E-04  0.218931737616E-04  0.238590457217E-04  0.260025269107E-04
  0.283397360515E-04  0.308882564680E-04  0.336672685937E-04  0.366976943159E-04  0.400023541868E-04
  0.436061386171E-04  0.475361942608E-04  0.518221268975E-04  0.564962222268E-04  0.615936861021E-04
  0.671529058541E-04  0.732157344861E-04  0.798277996628E-04  0.870388395649E-04  0.949030678410E-04
  0.103479570061E-03  0.112832734256E-03  0.123032718318E-03  0.134155957248E-03  0.146285713452E-03
  0.159512673508E-03  0.173935595078E-03  0.189662007894E-03  0.206808973009E-03  0.225503904776E-03
  0.245885460341E-03  0.268104501697E-03  0.292325135691E-03  0.318725837701E-03  0.347500665009E-03
  0.378860566273E-03  0.413034793810E-03  0.450272425793E-03  0.490844005768E-03  0.535043307297E-03
  0.583189231821E-03  0.635627848205E-03  0.692734582704E-03  0.754916568408E-03  0.822615163442E-03
  0.896308647432E-03  0.976515105911E-03  0.106379551242E-02  0.115875701812E-02  0.126205645859E-02
  0.137440408749E-02  0.149656754623E-02  0.162937607852E-02  0.177372499821E-02  0.193058041751E-02
  0.210098424251E-02  0.228605944072E-02  0.248701558469E-02  0.270515467328E-02  0.294187723031E-02
  0.319868867754E-02  0.347720597606E-02  0.377916452652E-02  0.410642531453E-02  0.446098228310E-02
  0.484496990856E-02  0.526067095038E-02  0.571052433863E-02  0.619713315519E-02  0.672327265638E-02
  0.729189827528E-02  0.790615353159E-02  0.856937776549E-02  0.928511359945E-02  0.100571140183E-01
  0.108893489433E-01  0.117860111590E-01  0.127515214372E-01  0.137905326792E-01  0.149079328833E-01
  0.161088467185E-01  0.173986354640E-01  0.187828950497E-01  0.202674519024E-01  0.218583562759E-01
  0.235618727061E-01  0.253844672048E-01  0.273327907689E-01  0.294136587577E-01  0.316340256712E-01
  0.340009548502E-01  0.365215826225E-01  0.392030764263E-01  0.420525864513E-01  0.450771903510E-01
  0.482838305848E-01  0.516792439576E-01  0.552698829292E-01  0.590618282801E-01  0.630606927425E-01
  0.672715152344E-01  0.716986453887E-01  0.763456181440E-01  0.812150182573E-01  0.863083347313E-01
  0.916258052894E-01  0.971662512125E-01  0.102926903040E+00  0.108903217873E+00  0.115088689253E+00
  0.121474650881E+00  0.128050075739E+00  0.134801372500E+00  0.141712181468E+00  0.148763172662E+00
  0.155931849024E+00  0.163192358140E+00  0.170515316236E+00  0.177867648612E+00  0.185212451018E+00
  0.192508876840E+00  0.199712055226E+00  0.206773045522E+00  0.213638833465E+00  0.220252374493E+00
  0.226552689235E+00  0.232475015656E+00  0.237951021626E+00  0.242909081070E+00  0.247274616839E+00
  0.250970514436E+00  0.253917612796E+00  0.256035280951E+00  0.257242091418E+00  0.257456600899E+00
  0.256598244724E+00  0.254588342985E+00  0.251351205740E+00  0.246815318611E+00  0.240914590580E+00
  0.233589650607E+00  0.224789182099E+00  0.214471282245E+00  0.202604829105E+00  0.189170835975E+00
  0.174163770771E+00  0.157592817220E+00  0.139483053494E+00  0.119876522201E+00  0.988331636377E-01
  0.764315822351E-01  0.527696148087E-01  0.279646687687E-01  0.215379939533E-02 -0.245065023826E-01
 -0.518408365373E-01 -0.796557548508E-01 -0.107740970273E+00 -0.135870920246E+00 -0.163806673836E+00
 -0.191298143262E+00 -0.218086516189E+00 -0.243906785114E+00 -0.268490262963E+00 -0.291567097954E+00
 -0.312869033729E+00 -0.332132813114E+00 -0.349104360619E+00 -0.363543261425E+00 -0.375226844850E+00
 -0.383953616199E+00 -0.389546187992E+00 -0.391853886319E+00 -0.390755061339E+00 -0.386159019962E+00
 -0.378007469658E+00 -0.366275396539E+00 -0.350971358660E+00 -0.332137223652E+00 -0.309847406059E+00
 -0.284207668107E+00 -0.255353545862E+00 -0.223448456971E+00 -0.188681539478E+00 -0.151265264832E+00
 -0.111432863453E+00 -0.694355982383E-01 -0.255399203779E-01  0.199754562230E-01  0.668225241176E-01
  0.114706952334E+00  0.163331010300E+00  0.212396392543E+00  0.261606885657E+00  0.310670818080E+00
  0.359303246203E+00  0.407227864153E+00  0.454178677107E+00  0.499901530007E+00  0.544155602623E+00
  0.586714952008E+00  0.627370112613E+00  0.665929693467E+00  0.702221874691E+00  0.736095704421E+00
  0.767422127107E+00  0.796094697345E+00  0.822029968090E+00  0.845167547605E+00  0.865469839778E+00
  0.882921487262E+00  0.897528540894E+00  0.909317389434E+00  0.918333472270E+00  0.924639815189E+00
  0.928315405013E+00  0.929453442203E+00  0.928159493181E+00  0.924549577312E+00  0.918748222045E+00
  0.910886523379E+00  0.901100249155E+00  0.889528013543E+00  0.876309541246E+00  0.861584034570E+00
  0.845488640616E+00  0.828157024399E+00  0.809718078427E+00  0.790294789567E+00  0.770003386973E+00
  0.748952792707E+00  0.727244472633E+00  0.704972675341E+00  0.682225010146E+00  0.659083267122E+00
  0.635624365492E+00  0.611921320861E+00  0.588044165399E+00  0.564060766304E+00  0.540037536192E+00
  0.516040004264E+00  0.492133266569E+00  0.468382265262E+00  0.444851897047E+00  0.421606896024E+00
  0.398711472755E+00  0.376228691230E+00  0.354219606753E+00  0.332742222058E+00  0.311850359133E+00
  0.291592566743E+00  0.272011185638E+00  0.253141673427E+00  0.235012254318E+00  0.217643915175E+00
  0.201050766312E+00  0.185240471361E+00  0.170215282458E+00  0.155972760366E+00  0.142506721694E+00
  0.129808073580E+00  0.117865511852E+00  0.106666037335E+00  0.961952715999E-01  0.864375811071E-01
  0.773760433879E-01  0.689923065004E-01  0.612664009376E-01  0.541765610162E-01
 pseudo wavefunction
  0.166954564290E-11  0.183776749828E-11  0.202293923019E-11  0.222676869231E-11  0.245113582004E-11
  0.269810996930E-11  0.296996900237E-11  0.326922029681E-11  0.359862387117E-11  0.396121784088E-11
  0.436034643904E-11  0.479969086051E-11  0.528330321388E-11  0.581564389442E-11  0.640162272260E-11
  0.704664422779E-11  0.775665749464E-11  0.853821103198E-11  0.939851317019E-11  0.103454985443E-10
  0.113879012755E-10  0.125353355269E-10  0.137983841758E-10  0.151886964198E-10  0.167190952190E-10
  0.184036955625E-10  0.202580346527E-10  0.222992152055E-10  0.245460631903E-10  0.270193014633E-10
  0.297417408961E-10  0.327384907619E-10  0.360371903203E-10  0.396682637366E-10  0.436652006857E-10
  0.480648652302E-10  0.529078358204E-10  0.582387795523E-10  0.641068641358E-10  0.705662113716E-10
  0.776763963212E-10  0.855029967717E-10  0.941181980647E-10  0.103601458867E-09  0.114040244022E-09
  0.125530831249E-09  0.138179199112E-09  0.152102004475E-09  0.167427658431E-09  0.184297510649E-09
  0.202867153051E-09  0.223307854847E-09  0.245808142161E-09  0.270575536823E-09  0.297838470353E-09
  0.327848390801E-09  0.360882081868E-09  0.397244215700E-09  0.437270162896E-09  0.481329085652E-09
  0.529827342565E-09  0.583212236501E-09  0.641976140094E-09  0.706661036927E-09  0.777863520270E-09
  0.856240295494E-09  0.942514236890E-09  0.103748105478E-08  0.114201663438E-08  0.125708511412E-08
  0.138374777796E-08  0.152317284359E-08  0.167664623701E-08  0.184558345260E-08  0.203154260832E-08
  0.223623881620E-08  0.246156000091E-08  0.270958431208E-08  0.298259929111E-08  0.328312296918E-08
  0.361392709101E-08  0.397806267872E-08  0.437888817132E-08  0.482010039954E-08  0.530576868165E-08
  0.584037235461E-08  0.642884208688E-08  0.707660535370E-08  0.778963649446E-08  0.857451181363E-08
  0.943847023354E-08  0.103894800584E-07  0.114363124652E-07  0.125886223994E-07  0.138570376213E-07
  0.152532567247E-07  0.167901570311E-07  0.184819133555E-07  0.203441287379E-07  0.223939783476E-07
  0.246503678860E-07  0.271341079494E-07  0.298681059606E-07  0.328775774373E-07  0.361902785478E-07
  0.398367620974E-07  0.438506593063E-07  0.482689899780E-07  0.531325039182E-07  0.584860567528E-07
  0.643790236101E-07  0.708657544834E-07  0.780060754713E-07  0.858658405191E-07  0.945175387490E-07
  0.104040962978E-06  0.114523945592E-06  0.126063168550E-06  0.138765055011E-06  0.152746750770E-06
  0.168137204590E-06  0.185078357361E-06  0.203726451066E-06  0.224253469617E-06  0.246848724849E-06
  0.271720602285E-06  0.299098482783E-06  0.329234857755E-06  0.362407657484E-06  0.398922813987E-06
  0.439117082052E-06  0.483361144447E-06  0.532063029931E-06  0.585671875574E-06  0.644682068038E-06
  0.709637802018E-06  0.781138097822E-06  0.859842324350E-06  0.946476278346E-06  0.104183887595E-05
  0.114680951821E-05  0.126235619835E-05  0.138954442560E-05  0.152954704764E-05  0.168365506227E-05
  0.185328951774E-05  0.204001461147E-05  0.224555210767E-05  0.247179720659E-05  0.272083601162E-05
  0.299496475484E-05  0.329671095816E-05  0.362885672452E-05  0.399446437376E-05  0.439690465871E-05
  0.483988782123E-05  0.532749777363E-05  0.586422971987E-05  0.645503156231E-05  0.710534947458E-05
  0.782117805922E-05  0.860911555097E-05  0.947642457252E-05  0.104310990006E-04  0.114819375562E-04
  0.126386247935E-04  0.139118202317E-04  0.153132564451E-04  0.168558470119E-04  0.185538053101E-04
  0.204227752479E-04  0.224799751261E-04  0.247443559471E-04  0.272367756195E-04  0.299801906484E-04
  0.329998670638E-04  0.363236125096E-04  0.399820316121E-04  0.440088069530E-04  0.484410082068E-04
  0.533194322533E-04  0.586889773581E-04  0.645990548167E-04  0.711040417977E-04  0.782637794875E-04
  0.861441210431E-04  0.948175343078E-04  0.104363764727E-03  0.114870564441E-03  0.126434494113E-03
  0.139161804699E-03  0.153169407061E-03  0.168585938108E-03  0.185552932990E-03  0.204226113776E-03
  0.224776806101E-03  0.247393496322E-03  0.272283542982E-03  0.299675057656E-03  0.329818971738E-03
  0.362991307279E-03  0.399495671708E-03  0.439665998149E-03  0.483869555087E-03  0.532510251353E-03
  0.586032264810E-03  0.644924025766E-03  0.709722588972E-03  0.781018431157E-03  0.859460714399E-03
  0.945763059261E-03  0.104070987550E-02  0.114516330243E-02  0.126007081541E-02  0.138647356013E-02
  0.152551548103E-02  0.167845331649E-02  0.184666753872E-02  0.203167432299E-02  0.223513863755E-02
  0.245888855250E-02  0.270493087341E-02  0.297546821330E-02  0.327291762469E-02  0.359993092168E-02
  0.395941683065E-02  0.435456511687E-02  0.478887284276E-02  0.526617292232E-02  0.579066514417E-02
  0.636694984349E-02  0.700006441002E-02  0.769552282466E-02  0.845935842200E-02  0.929817007768E-02
  0.102191720197E-01  0.112302474587E-01  0.123400062249E-01  0.135578465870E-01  0.148940214083E-01
  0.163597087724E-01  0.179670871710E-01  0.197294153054E-01  0.216611164939E-01  0.237778676007E-01
  0.260966923175E-01  0.286360585130E-01  0.314159792315E-01  0.344581167623E-01  0.377858890024E-01
  0.414245771087E-01  0.454014331608E-01  0.497457862379E-01  0.544891449420E-01  0.596652939666E-01
  0.653103818181E-01  0.714629962275E-01  0.781642231467E-01  0.854576844990E-01  0.933895490357E-01
  0.102008509753E+00  0.111365720324E+00  0.121514681928E+00  0.132511070690E+00  0.144412494728E+00
  0.157278168522E+00  0.171168491036E+00  0.186144512770E+00  0.202267275727E+00  0.219597009270E+00
  0.238192164079E+00  0.258108266032E+00  0.279396571962E+00  0.302102510107E+00  0.326263889822E+00
  0.351908868123E+00  0.379053665045E+00  0.407700026093E+00  0.437832438523E+00  0.469415119238E+00
  0.502388806121E+00  0.536667402030E+00  0.572134541757E+00  0.608640177263E+00  0.645997305397E+00
  0.683978994928E+00  0.722315905364E+00  0.760694527586E+00  0.798756413894E+00  0.836098699893E+00
  0.872276248918E+00  0.906805766267E+00  0.939172228807E+00  0.968837947426E+00  0.995254515675E+00
  0.101787778696E+01  0.103618585316E+01  0.104969975826E+01  0.105800636247E+01  0.106078236938E+01
  0.105781804435E+01  0.104903859937E+01  0.103452062887E+01  0.101450040567E+01  0.989370367276E+00
  0.959659855357E+00  0.925996268069E+00  0.889043431331E+00  0.849415405893E+00  0.807566338480E+00
  0.763661718246E+00  0.717628312444E+00  0.669484423728E+00  0.619260827659E+00  0.000000000000E+00
  0.000000000000E+00  0.000000000000E+00  0.000000000000E+00  0.000000000000E+00  0.000000000000E+00
  0.000000000000E+00  0.000000000000E+00  0.000000000000E+00  0.000000000000E+00  0.000000000000E+00
  0.000000000000E+00  0.000000000000E+00  0.000000000000E+00  0.000000000000E+00  0.000000000000E+00
  0.000000000000E+00  0.000000000000E+00  0.000000000000E+00  0.000000000000E+00  0.000000000000E+00
  0.000000000000E+00  0.000000000000E+00  0.000000000000E+00  0.000000000000E+00  0.000000000000E+00
  0.000000000000E+00  0.000000000000E+00  0.000000000000E+00  0.000000000000E+00  0.000000000000E+00
  0.000000000000E+00  0.000000000000E+00  0.000000000000E+00  0.000000000000E+00
 ae wavefunction
  0.270828954155E-07  0.295141504765E-07  0.321510833815E-07  0.350121305523E-07  0.381173060416E-07
  0.414883433787E-07  0.451488497379E-07  0.491244735418E-07  0.534430867151E-07  0.581349829128E-07
  0.632330931656E-07  0.687732205145E-07  0.747942953437E-07  0.813386532825E-07  0.884523377033E-07
  0.961854290385E-07  0.104592403328E-06  0.113732522635E-06  0.123670260200E-06  0.134475763474E-06
  0.146225358433E-06  0.159002098920E-06  0.172896365062E-06  0.188006515213E-06  0.204439596249E-06
  0.222312117498E-06  0.241750894072E-06  0.262893965874E-06  0.285891599142E-06  0.310907378032E-06
  0.338119394360E-06  0.367721544489E-06  0.399924943020E-06  0.434959463944E-06  0.473075420860E-06
  0.514545398853E-06  0.559666251916E-06  0.608761280956E-06  0.662182608825E-06  0.720313770408E-06
  0.783572537323E-06  0.852413998688E-06  0.927333921336E-06  0.100887241500E-05  0.109761793036E-05
  0.119421162034E-05  0.129935209799E-05  0.141380062708E-05  0.153838678513E-05  0.167401464213E-05
  0.182166950202E-05  0.198242525859E-05  0.215745242212E-05  0.234802687793E-05  0.255553944418E-05
  0.278150630187E-05  0.302758037699E-05  0.329556376206E-05  0.358742127202E-05  0.390529523838E-05
  0.425152165490E-05  0.462864779826E-05  0.503945145865E-05  0.548696192716E-05  0.597448290052E-05
  0.650561747785E-05  0.708429544034E-05  0.771480302152E-05  0.840181539495E-05  0.915043212605E-05
  0.996621585751E-05  0.108552345212E-04  0.118241073960E-04  0.128800553600E-04  0.140309557146E-04
  0.152854019940E-04  0.166527692080E-04  0.181432850074E-04  0.197681073011E-04  0.215394089049E-04
  0.234704698483E-04  0.255757780220E-04  0.278711389082E-04  0.303737951980E-04  0.331025571716E-04
  0.360779447894E-04  0.393223425236E-04  0.428601680483E-04  0.467180559964E-04  0.509250580979E-04
  0.555128611178E-04  0.605160241327E-04  0.659722368108E-04  0.719226004940E-04  0.784119340268E-04
  0.854891064350E-04  0.932073987197E-04  0.101624897216E-03  0.110804921150E-03  0.120816487245E-03
  0.131734814422E-03  0.143641871898E-03  0.156626974210E-03  0.170787426968E-03  0.186229227405E-03
  0.203067824087E-03  0.221428940473E-03  0.241449467291E-03  0.263278429108E-03  0.287078030747E-03
  0.313024789647E-03  0.341310760609E-03  0.372144859768E-03  0.405754295084E-03  0.442386111024E-03
  0.482308855571E-03  0.525814378132E-03  0.573219767345E-03  0.624869438271E-03  0.681137378845E-03
  0.742429565943E-03  0.809186561796E-03  0.881886301913E-03  0.961047086007E-03  0.104723078376E-02
  0.114104626754E-02  0.124315308433E-02  0.135426537934E-02  0.147515608384E-02  0.160666137938E-02
  0.174968545086E-02  0.190520554005E-02  0.207427731085E-02  0.225804053684E-02  0.245772512061E-02
  0.267465745293E-02  0.291026711860E-02  0.316609395347E-02  0.344379545499E-02  0.374515454580E-02
  0.407208768665E-02  0.442665333077E-02  0.481106070784E-02  0.522767892001E-02  0.567904632685E-02
  0.616788018927E-02  0.669708653475E-02  0.726977019768E-02  0.788924497897E-02  0.855904385822E-02
  0.928292917995E-02  0.100649027219E-01  0.109092155391E-01  0.118203774614E-01  0.128031661051E-01
  0.138626352392E-01  0.150041223291E-01  0.162332550556E-01  0.175559565863E-01  0.189784493486E-01
  0.205072570297E-01  0.221492044949E-01  0.239114152875E-01  0.258013063357E-01  0.278265794539E-01
  0.299952091851E-01  0.323154264892E-01  0.347956977403E-01  0.374446984628E-01  0.402712812112E-01
  0.432844369839E-01  0.464932495656E-01  0.499068422003E-01  0.535343160107E-01  0.573846795945E-01
  0.614667692372E-01  0.657891591885E-01  0.703600614599E-01  0.751872146159E-01  0.802777610611E-01
  0.856381123613E-01  0.912738022084E-01  0.971893267283E-01  0.103387971959E+00  0.109871628482E+00
  0.116640593389E+00  0.123693359966E+00  0.131026395753E+00  0.138633909905E+00  0.146507611105E+00
  0.154636457630E+00  0.163006401561E+00  0.171600129551E+00  0.180396802985E+00  0.189371800880E+00
  0.198496469305E+00  0.207737881653E+00  0.217058614542E+00  0.226416544652E+00  0.235764672237E+00
  0.245050977508E+00  0.254218316436E+00  0.263204362788E+00  0.271941603352E+00  0.280357393195E+00
  0.288374077361E+00  0.295909184768E+00  0.302875699051E+00  0.309182410432E+00  0.314734352582E+00
  0.319433329770E+00  0.323178542176E+00  0.325867320660E+00  0.327395984738E+00  0.327660837286E+00
  0.326559304153E+00  0.323991216068E+00  0.319860216780E+00  0.314075273676E+00  0.306552267679E+00
  0.297215645455E+00  0.286000119895E+00  0.272852402394E+00  0.257732945080E+00  0.240617666949E+00
  0.221499635515E+00  0.200390674448E+00  0.177322866090E+00  0.152349915657E+00  0.125548341276E+00
  0.970184515506E-01  0.668850706070E-01  0.352979700449E-01  0.243196837382E-02 -0.315133384933E-01
 -0.663142473787E-01 -0.101724044189E+00 -0.137474544492E+00 -0.173278085418E+00 -0.208829956006E+00
 -0.243811215857E+00 -0.277891795660E+00 -0.310733722180E+00 -0.341994326762E+00 -0.371329454230E+00
 -0.398396985771E+00 -0.422861182988E+00 -0.444398024754E+00 -0.462700922282E+00 -0.477485931286E+00
 -0.488496135530E+00 -0.495505394231E+00 -0.498321677035E+00 -0.496790023387E+00 -0.490795021808E+00
 -0.480262667721E+00 -0.465161502052E+00 -0.445503006476E+00 -0.421341292446E+00 -0.392772154528E+00
 -0.359931569154E+00 -0.322993717586E+00 -0.282168604537E+00 -0.237699335345E+00 -0.189859106421E+00
 -0.138947957721E+00 -0.852893321531E-01 -0.292264855912E-01  0.288812063451E-01  0.886619966342E-01
  0.149735515869E+00  0.211716462135E+00  0.274218163999E+00  0.336855942089E+00  0.399250193588E+00
  0.461029140829E+00  0.521831228513E+00  0.581307221280E+00  0.639122119468E+00  0.694957034676E+00
  0.748511127769E+00  0.799503621037E+00  0.847675805610E+00  0.892792918010E+00  0.934645758552E+00
  0.973051962712E+00  0.100785686636E+01  0.103893394976E+01  0.106618485390E+01  0.108953898398E+01
  0.110895272854E+01  0.112440832060E+01  0.113591238476E+01  0.114349419893E+01  0.114720372146E+01
  0.114710940442E+01  0.114329584329E+01  0.113586129235E+01  0.112491509176E+01  0.111057505139E+01
  0.109296484102E+01  0.107221143761E+01  0.104844266910E+01  0.102178488316E+01  0.992360763508E+00
  0.960287299285E+00  0.925673924848E+00  0.888620877178E+00  0.849217805671E+00  0.807542780594E+00
  0.763661718246E+00  0.717628312444E+00  0.669484423728E+00  0.619260827659E+00  0.000000000000E+00
  0.000000000000E+00  0.000000000000E+00  0.000000000000E+00  0.000000000000E+00  0.000000000000E+00
  0.000000000000E+00  0.000000000000E+00  0.000000000000E+00  0.000000000000E+00  0.000000000000E+00
  0.000000000000E+00  0.000000000000E+00  0.000000000000E+00  0.000000000000E+00  0.000000000000E+00
  0.000000000000E+00  0.000000000000E+00  0.000000000000E+00  0.000000000000E+00  0.000000000000E+00
  0.000000000000E+00  0.000000000000E+00  0.000000000000E+00  0.000000000000E+00  0.000000000000E+00
  0.000000000000E+00  0.000000000000E+00  0.000000000000E+00  0.000000000000E+00  0.000000000000E+00
  0.000000000000E+00  0.000000000000E+00  0.000000000000E+00  0.000000000000E+00
 pseudo wavefunction
  0.755428887188E-05  0.779993551895E-05  0.805356998403E-05  0.831545201125E-05  0.858584979094E-05
  0.886504023437E-05  0.915330925728E-05  0.945095207270E-05  0.975827349328E-05  0.100755882435E-04
  0.104032212817E-04  0.107415081335E-04  0.110907952347E-04  0.114514402864E-04  0.118238126215E-04
  0.122082935824E-04  0.126052769123E-04  0.130151691576E-04  0.134383900848E-04  0.138753731104E-04
  0.143265657443E-04  0.147924300488E-04  0.152734431110E-04  0.157700975321E-04  0.162829019315E-04
  0.168123814676E-04  0.173590783762E-04  0.179235525251E-04  0.185063819878E-04  0.191081636357E-04
  0.197295137490E-04  0.203710686484E-04  0.210334853459E-04  0.217174422186E-04  0.224236397031E-04
  0.231528010125E-04  0.239056728777E-04  0.246830263116E-04  0.254856573994E-04  0.263143881132E-04
  0.271700671544E-04  0.280535708225E-04  0.289658039130E-04  0.299077006438E-04  0.308802256122E-04
  0.318843747827E-04  0.329211765072E-04  0.339916925782E-04  0.350970193162E-04  0.362382886931E-04
  0.374166694909E-04  0.386333684994E-04  0.398896317520E-04  0.411867458023E-04  0.425260390415E-04
  0.439088830594E-04  0.453366940493E-04  0.468109342586E-04  0.483331134867E-04  0.499047906319E-04
  0.515275752877E-04  0.532031293925E-04  0.549331689314E-04  0.567194656948E-04  0.585638490932E-04
  0.604682080318E-04  0.624344928453E-04  0.644647172967E-04  0.665609606403E-04  0.687253697524E-04
  0.709601613312E-04  0.732676241679E-04  0.756501214927E-04  0.781100933966E-04  0.806500593317E-04
  0.832726206941E-04  0.859804634898E-04  0.887763610878E-04  0.916631770637E-04  0.946438681346E-04
  0.977214871909E-04  0.100899186426E-03  0.104180220569E-03  0.107567950223E-03  0.111065845308E-03
  0.114677488625E-03  0.118406579528E-03  0.122256937720E-03  0.126232507170E-03  0.130337360164E-03
  0.134575701480E-03  0.138951872706E-03  0.143470356697E-03  0.148135782176E-03  0.152952928489E-03
  0.157926730512E-03  0.163062283722E-03  0.168364849431E-03  0.173839860193E-03  0.179492925391E-03
  0.185329837001E-03  0.191356575551E-03  0.197579316270E-03  0.204004435449E-03  0.210638516999E-03
  0.217488359232E-03  0.224560981867E-03  0.231863633258E-03  0.239403797872E-03  0.247189204006E-03
  0.255227831761E-03  0.263527921281E-03  0.272097981265E-03  0.280946797759E-03  0.290083443244E-03
  0.299517286022E-03  0.309257999919E-03  0.319315574307E-03  0.329700324464E-03  0.340422902282E-03
  0.351494307330E-03  0.362925898291E-03  0.374729404789E-03  0.386916939602E-03  0.399501011304E-03
  0.412494537324E-03  0.425910857456E-03  0.439763747825E-03  0.454067435336E-03  0.468836612610E-03
  0.484086453447E-03  0.499832628809E-03  0.516091323372E-03  0.532879252638E-03  0.550213680664E-03
  0.568112438392E-03  0.586593942651E-03  0.605677215806E-03  0.625381906132E-03  0.645728308900E-03
  0.666737388232E-03  0.688430799748E-03  0.710830914039E-03  0.733960841002E-03  0.757844455073E-03
  0.782506421410E-03  0.807972223050E-03  0.834268189101E-03  0.861421524007E-03  0.889460337949E-03
  0.918413678419E-03  0.948311563042E-03  0.979185013700E-03  0.101106609202E-02  0.104398793633E-02
  0.107798480004E-02  0.111309209179E-02  0.114934641707E-02  0.118678562181E-02  0.122544883768E-02
  0.126537652953E-02  0.130661054480E-02  0.134919416521E-02  0.139317216082E-02  0.143859084658E-02
  0.148549814149E-02  0.153394363070E-02  0.158397863050E-02  0.163565625660E-02  0.168903149577E-02
  0.174416128122E-02  0.180110457181E-02  0.185992243544E-02  0.192067813700E-02  0.198343723105E-02
  0.204826765961E-02  0.211523985565E-02  0.218442685231E-02  0.225590439873E-02  0.232975108263E-02
  0.240604846039E-02  0.248488119517E-02  0.256633720365E-02  0.265050781217E-02  0.273748792300E-02
  0.282737619155E-02  0.292027521549E-02  0.301629173676E-02  0.311553685752E-02  0.321812627128E-02
  0.332418051049E-02  0.343382521213E-02  0.354719140258E-02  0.366441580392E-02  0.378564116308E-02
  0.391101660623E-02  0.404069802055E-02  0.417484846577E-02  0.431363861831E-02  0.445724725096E-02
  0.460586175122E-02  0.475967868201E-02  0.491890438864E-02  0.508375565615E-02  0.525446042190E-02
  0.543125854837E-02  0.561440266196E-02  0.580415906375E-02  0.600080871915E-02  0.620464833367E-02
  0.641599152297E-02  0.663517008614E-02  0.686253539168E-02  0.709845988703E-02  0.734333874307E-02
  0.759759164654E-02  0.786166475400E-02  0.813603282271E-02  0.842120153508E-02  0.871771003471E-02
  0.902613369388E-02  0.934708713430E-02  0.968122752450E-02  0.100292581798E-01  0.103919324928E-01
  0.107700582252E-01  0.111645021941E-01  0.115761953886E-01  0.120061385568E-01  0.124554083055E-01
  0.129251637589E-01  0.134166538261E-01  0.139312251332E-01  0.144703306762E-01  0.150355392608E-01
  0.156285457952E-01  0.162511825102E-01  0.169054311851E-01  0.175934364643E-01  0.183175203537E-01
  0.190801979934E-01  0.198841948095E-01  0.207324651510E-01  0.216282125270E-01  0.225749115643E-01
  0.235763318074E-01  0.246365634927E-01  0.257600454297E-01  0.269515951234E-01  0.282164412780E-01
  0.295602588166E-01  0.309892065522E-01  0.325099676386E-01  0.341297929207E-01  0.358565472901E-01
  0.376987591341E-01  0.396656729395E-01  0.417673050835E-01  0.440145027973E-01  0.464190062413E-01
  0.489935135627E-01  0.517517487270E-01  0.547085318210E-01  0.578798514045E-01  0.612829383520E-01
  0.649363404567E-01  0.688599968754E-01  0.730753112595E-01  0.776052221510E-01  0.824742689052E-01
  0.877086510433E-01  0.933362785203E-01  0.993868099201E-01  0.105891675050E+00  0.112884077804E+00
  0.120398974477E+00  0.128473021977E+00  0.137144489543E+00  0.146453126671E+00  0.156439979036E+00
  0.167147143108E+00  0.178617449194E+00  0.190894061513E+00  0.204019982910E+00  0.218037450873E+00
  0.232987210660E+00  0.248907650799E+00  0.265833785936E+00  0.283796072205E+00  0.302819041150E+00
  0.322919739807E+00  0.344105967309E+00  0.366374302313E+00  0.389707921217E+00  0.414074214694E+00
  0.439422219997E+00  0.465679899177E+00  0.492751309095E+00  0.520513728402E+00  0.548814829704E+00
  0.577470012123E+00  0.606260040347E+00  0.634929170761E+00  0.663183982556E+00  0.690693170471E+00
  0.717088594145E+00  0.741967913657E+00  0.764899167925E+00  0.785427666423E+00  0.803085558438E+00
  0.817400870697E+00  0.828072155666E+00  0.835083357667E+00  0.838478434992E+00  0.838324510138E+00
  0.834711548460E+00  0.827752057541E+00  0.817580711547E+00  0.804353805541E+00  0.788248503398E+00
  0.769461810781E+00  0.748209276304E+00  0.724723331636E+00  0.699251257670E+00  0.672052686302E+00
  0.643396609260E+00  0.613557874427E+00  0.582813227670E+00  0.551437032278E+00  0.519696870516E+00
  0.487849292510E+00  0.456135977832E+00  0.424780542027E+00  0.393986146804E+00  0.363933980851E+00
  0.334782588029E+00  0.306667954913E+00  0.279704183459E+00  0.253984595074E+00  0.229583071420E+00
  0.206555468764E+00  0.184940974286E+00  0.164763319087E+00  0.146031815127E+00  0.128742233921E+00
  0.112877585044E+00  0.984088755878E-01  0.852959347058E-01  0.734883720160E-01
 ae wavefunction
 -0.450598745261E-02 -0.462821482509E-02 -0.475370073835E-02 -0.488252898028E-02 -0.501478529485E-02
 -0.515055741573E-02 -0.528993509964E-02 -0.543301015930E-02 -0.557987649601E-02 -0.573063013171E-02
 -0.588536924044E-02 -0.604419417902E-02 -0.620720751698E-02 -0.637451406549E-02 -0.654622090518E-02
 -0.672243741273E-02 -0.690327528614E-02 -0.708884856830E-02 -0.727927366894E-02 -0.747466938464E-02
 -0.767515691666E-02 -0.788085988647E-02 -0.809190434875E-02 -0.830841880147E-02 -0.853053419303E-02
 -0.875838392594E-02 -0.899210385697E-02 -0.923183229332E-02 -0.947770998445E-02 -0.972988010944E-02
 -0.998848825927E-02 -0.102536824137E-01 -0.105256129126E-01 -0.108044324205E-01 -0.110902958853E-01
 -0.113833604891E-01 -0.116837855917E-01 -0.119917326655E-01 -0.123073652222E-01 -0.126308487296E-01
 -0.129623505181E-01 -0.133020396773E-01 -0.136500869401E-01 -0.140066645554E-01 -0.143719461469E-01
 -0.147461065588E-01 -0.151293216862E-01 -0.155217682899E-01 -0.159236237941E-01 -0.163350660673E-01
 -0.167562731826E-01 -0.171874231600E-01 -0.176286936855E-01 -0.180802618091E-01 -0.185423036179E-01
 -0.190149938849E-01 -0.194985056898E-01 -0.199930100129E-01 -0.204986752981E-01 -0.210156669846E-01
 -0.215441470060E-01 -0.220842732529E-01 -0.226361990001E-01 -0.232000722935E-01 -0.237760352970E-01
 -0.243642235958E-01 -0.249647654542E-01 -0.255777810266E-01 -0.262033815177E-01 -0.268416682914E-01
 -0.274927319237E-01 -0.281566511995E-01 -0.288334920486E-01 -0.295233064194E-01 -0.302261310872E-01
 -0.309419863944E-01 -0.316708749199E-01 -0.324127800743E-01 -0.331676646189E-01 -0.339354691048E-01
 -0.347161102296E-01 -0.355094791091E-01 -0.363154394605E-01 -0.371338256946E-01 -0.379644409151E-01
 -0.388070548201E-01 -0.396614015071E-01 -0.405271771746E-01 -0.414040377221E-01 -0.422915962440E-01
 -0.431894204176E-01 -0.440970297818E-01 -0.450138929076E-01 -0.459394244584E-01 -0.468729821406E-01
 -0.478138635445E-01 -0.487613028772E-01 -0.497144675885E-01 -0.506724548925E-01 -0.516342881886E-01
 -0.525989133857E-01 -0.535651951345E-01 -0.545319129759E-01 -0.554977574114E-01 -0.564613259063E-01
 -0.574211188346E-01 -0.583755353800E-01 -0.593228694059E-01 -0.602613053111E-01 -0.611889138889E-01
 -0.621036482123E-01 -0.630033395660E-01 -0.638856934536E-01 -0.647482857072E-01 -0.655885587338E-01
 -0.664038179310E-01 -0.671912283145E-01 -0.679478113981E-01 -0.686704423744E-01 -0.693558476475E-01
 -0.700006027731E-01 -0.706011308684E-01 -0.711537015545E-01 -0.716544305063E-01 -0.720992796823E-01
 -0.724840583191E-01 -0.728044247766E-01 -0.730558893278E-01 -0.732338179928E-01 -0.733334375220E-01
 -0.733498416399E-01 -0.732779986662E-01 -0.731127606369E-01 -0.728488740543E-01 -0.724809923976E-01
 -0.720036905334E-01 -0.714114811664E-01 -0.706988334764E-01 -0.698601940881E-01 -0.688900105232E-01
 -0.677827572833E-01 -0.665329647097E-01 -0.651352507666E-01 -0.635843558845E-01 -0.618751809969E-01
 -0.600028288921E-01 -0.579626489878E-01 -0.557502856252E-01 -0.533617299533E-01 -0.507933754562E-01
 -0.480420771477E-01 -0.451052144229E-01 -0.419807575227E-01 -0.386673375234E-01 -0.351643197130E-01
 -0.314718801654E-01 -0.275910852572E-01 -0.235239738064E-01 -0.192736414370E-01 -0.148443266883E-01
 -0.102414983029E-01 -0.547194303316E-02 -0.543853208211E-03  0.453308679001E-02  0.974761609393E-02
  0.150868160076E-01  0.205360329017E-01  0.260788066026E-01  0.316968056538E-01  0.373697709802E-01
  0.430754696503E-01  0.487896606276E-01  0.544860745859E-01  0.601364100381E-01  0.657103481563E-01
  0.711755887456E-01  0.764979098668E-01  0.816412535922E-01  0.865678403242E-01  0.912383140138E-01
  0.956119204898E-01  0.996467209492E-01  0.103299842468E+00  0.106527767154E+00  0.109286661280E+00
  0.111532745392E+00  0.113222705936E+00  0.114314148475E+00  0.114766091957E+00  0.114539502802E+00
  0.113597866847E+00  0.111907796274E+00  0.109439667748E+00  0.106168286905E+00  0.102073573268E+00
  0.971412584387E-01  0.913635892425E-01  0.847400261844E-01  0.772779263632E-01  0.689931987192E-01
  0.599109183191E-01  0.500658852908E-01  0.395031130555E-01  0.282782297376E-01  0.164577760977E-01
  0.411938315104E-02 -0.864818710922E-02 -0.217451536538E-01 -0.350609954306E-01 -0.484749100951E-01
 -0.618564633393E-01 -0.750664384017E-01 -0.879578947619E-01 -0.100377444884E+00 -0.112166757216E+00
 -0.123164290855E+00 -0.133207260785E+00 -0.142133822290E+00 -0.149785452543E+00 -0.156009499780E+00
 -0.160661866932E+00 -0.163609793544E+00 -0.164734694999E+00 -0.163935011782E+00 -0.161129015697E+00
 -0.156257515740E+00 -0.149286403525E+00 -0.140208976233E+00 -0.129047973682E+00 -0.115857265275E+00
 -0.100723122795E+00 -0.837650166350E-01 -0.651358765992E-01 -0.450217642848E-01 -0.236409125378E-01
 -0.124209851821E-02  0.218976698141E-01  0.454761587338E-01  0.691695924587E-01  0.926369794956E-01
  0.115525012247E+00  0.137473425685E+00  0.158120658580E+00  0.177109658322E+00  0.194093752698E+00
  0.208742677014E+00  0.220748950837E+00  0.229834602419E+00  0.235757793003E+00  0.238318748500E+00
  0.237364726845E+00  0.232794047370E+00  0.224559235578E+00  0.212669247224E+00  0.197190679671E+00
  0.178247885273E+00  0.156021952157E+00  0.130748579211E+00  0.102714920230E+00  0.722555004778E-01
  0.397473220584E-01  0.560427905163E-02 -0.297289959556E-01 -0.657837331350E-01 -0.102073954841E+00
 -0.138103614371E+00 -0.173373825639E+00 -0.207390065433E+00 -0.239669231158E+00 -0.269746437973E+00
 -0.297181443373E+00 -0.321564592495E+00 -0.342522184154E+00 -0.359721171226E+00 -0.372873128063E+00
 -0.381737453463E+00 -0.386123823126E+00 -0.385893949734E+00 -0.380962729641E+00 -0.371298833818E+00
 -0.356924747656E+00 -0.337916207192E+00 -0.314400954837E+00 -0.286556757049E+00 -0.254608669669E+00
 -0.218825588256E+00 -0.179516155048E+00 -0.137024122147E+00 -0.917232787890E-01 -0.440120597726E-01
  0.569204876385E-02  0.569581919797E-01  0.109347808456E+00  0.162420170037E+00  0.215737706271E+00
  0.268871027656E+00  0.321403573357E+00  0.372935818014E+00  0.423088986425E+00  0.471508239179E+00
  0.517865308777E+00  0.561860582998E+00  0.603224643040E+00  0.641719272054E+00  0.677137956755E+00
  0.709305901264E+00  0.738079584242E+00  0.763345917080E+00  0.785021078494E+00  0.803049174992E+00
  0.817400870697E+00  0.828072155666E+00  0.835083357667E+00  0.838478434992E+00  0.838324510138E+00
  0.834711548460E+00  0.827752057541E+00  0.817580711547E+00  0.804353805541E+00  0.788248503398E+00
  0.769461810781E+00  0.748209276304E+00  0.724723331636E+00  0.699251257670E+00  0.672052686302E+00
  0.643396609260E+00  0.613557874427E+00  0.582813227670E+00  0.551437032278E+00  0.519696870516E+00
  0.487849292510E+00  0.456135977832E+00  0.424780542027E+00  0.393986146804E+00  0.363933980851E+00
  0.334782588029E+00  0.306667954913E+00  0.279704183459E+00  0.253984595074E+00  0.229583071420E+00
  0.206555468764E+00  0.184940974286E+00  0.164763319087E+00  0.146031815127E+00  0.128742233921E+00
  0.112877585044E+00  0.984088755878E-01  0.852959347058E-01  0.734883720160E-01
 pseudo wavefunction
  0.165770088746E-04  0.171160518923E-04  0.176726232487E-04  0.182472929219E-04  0.188406494246E-04
  0.194533004064E-04  0.200858732762E-04  0.207390158448E-04  0.214133969882E-04  0.221097073326E-04
  0.228286599618E-04  0.235709911474E-04  0.243374611028E-04  0.251288547617E-04  0.259459825820E-04
  0.267896813759E-04  0.276608151667E-04  0.285602760738E-04  0.294889852261E-04  0.304478937058E-04
  0.314379835219E-04  0.324602686160E-04  0.335157959012E-04  0.346056463336E-04  0.357309360196E-04
  0.368928173591E-04  0.380924802252E-04  0.393311531835E-04  0.406101047498E-04  0.419306446893E-04
  0.432941253580E-04  0.447019430879E-04  0.461555396168E-04  0.476564035649E-04  0.492060719595E-04
  0.508061318090E-04  0.524582217284E-04  0.541640336173E-04  0.559253143930E-04  0.577438677793E-04
  0.596215561542E-04  0.615603024569E-04  0.635620921579E-04  0.656289752916E-04  0.677630685570E-04
  0.699665574848E-04  0.722416986765E-04  0.745908221151E-04  0.770163335523E-04  0.795207169718E-04
  0.821065371343E-04  0.847764422039E-04  0.875331664611E-04  0.903795331032E-04  0.933184571363E-04
  0.963529483612E-04  0.994861144565E-04  0.102721164162E-03  0.106061410566E-03  0.109510274498E-03
  0.113071288035E-03  0.116748098119E-03  0.120544470292E-03  0.124464292557E-03  0.128511579357E-03
  0.132690475691E-03  0.137005261362E-03  0.141460355358E-03  0.146060320384E-03  0.150809867535E-03
  0.155713861123E-03  0.160777323667E-03  0.166005441032E-03  0.171403567750E-03  0.176977232506E-03
  0.182732143806E-03  0.188674195825E-03  0.194809474453E-03  0.201144263532E-03  0.207685051298E-03
  0.214438537035E-03  0.221411637944E-03  0.228611496235E-03  0.236045486452E-03  0.243721223041E-03
  0.251646568154E-03  0.259829639719E-03  0.268278819768E-03  0.277002763039E-03  0.286010405853E-03
  0.295310975296E-03  0.304913998681E-03  0.314829313334E-03  0.325067076700E-03  0.335637776767E-03
  0.346552242848E-03  0.357821656702E-03  0.369457564029E-03  0.381471886340E-03  0.393876933208E-03
  0.406685414936E-03  0.419910455628E-03  0.433565606696E-03  0.447664860810E-03  0.462222666308E-03
  0.477253942078E-03  0.492774092934E-03  0.508799025494E-03  0.525345164594E-03  0.542429470227E-03
  0.560069455060E-03  0.578283202521E-03  0.597089385489E-03  0.616507285605E-03  0.636556813226E-03
  0.657258528042E-03  0.678633660382E-03  0.700704133235E-03  0.723492585000E-03  0.747022393008E-03
  0.771317697832E-03  0.796403428410E-03  0.822305328028E-03  0.849049981168E-03  0.876664841278E-03
  0.905178259483E-03  0.934619514270E-03  0.965018842200E-03  0.996407469660E-03  0.102881764572E-02
  0.106228267613E-02  0.109683695847E-02  0.113251601855E-02  0.116935654808E-02  0.120739644365E-02
  0.124667484712E-02  0.128723218736E-02  0.132911022361E-02  0.137235209027E-02  0.141700234335E-02
  0.146310700868E-02  0.151071363172E-02  0.155987132936E-02  0.161063084355E-02  0.166304459695E-02
  0.171716675071E-02  0.177305326434E-02  0.183076195801E-02  0.189035257713E-02  0.195188685952E-02
  0.201542860519E-02  0.208104374891E-02  0.214880043566E-02  0.221876909919E-02  0.229102254379E-02
  0.236563602943E-02  0.244268736049E-02  0.252225697834E-02  0.260442805781E-02  0.268928660793E-02
  0.277692157718E-02  0.286742496340E-02  0.296089192876E-02  0.305742092008E-02  0.315711379476E-02
  0.326007595276E-02  0.336641647503E-02  0.347624826869E-02  0.358968821960E-02  0.370685735262E-02
  0.382788100027E-02  0.395288898025E-02  0.408201578252E-02  0.421540076663E-02  0.435318836996E-02
  0.449552832785E-02  0.464257590630E-02  0.479449214843E-02  0.495144413553E-02  0.511360526406E-02
  0.528115553968E-02  0.545428188976E-02  0.563317849590E-02  0.581804714796E-02  0.600909762153E-02
  0.620654808072E-02  0.641062550832E-02  0.662156616580E-02  0.683961608564E-02  0.706503159872E-02
  0.729807989982E-02  0.753903965472E-02  0.778820165232E-02  0.804586950591E-02  0.831236040799E-02
  0.858800594330E-02  0.887315296544E-02  0.916816454274E-02  0.947342097975E-02  0.978932092108E-02
  0.101162825454E-01  0.104547448576E-01  0.108051690885E-01  0.111680402111E-01  0.115438685865E-01
  0.119331917478E-01  0.123365763386E-01  0.127546202185E-01  0.131879547508E-01  0.136372472908E-01
  0.141032038931E-01  0.145865722570E-01  0.150881449345E-01  0.156087628236E-01  0.161493189742E-01
  0.167107627364E-01  0.172941042821E-01  0.179004195354E-01  0.185308555492E-01  0.191866363703E-01
  0.198690694368E-01  0.205795525586E-01  0.213195815331E-01  0.220907584551E-01  0.228948007835E-01
  0.237335512347E-01  0.246089885753E-01  0.255232393970E-01  0.264785909587E-01  0.274775051926E-01
  0.285226339736E-01  0.296168357645E-01  0.307631937526E-01  0.319650356057E-01  0.332259549834E-01
  0.345498349480E-01  0.359408734298E-01  0.374036109114E-01  0.389429605048E-01  0.405642406033E-01
  0.422732103032E-01  0.440761077937E-01  0.459796919245E-01  0.479912871666E-01  0.501188321846E-01
  0.523709322420E-01  0.547569156621E-01  0.572868945580E-01  0.599718300431E-01  0.628236021101E-01
  0.658550843535E-01  0.690802236723E-01  0.725141250541E-01  0.761731414853E-01  0.800749689652E-01
  0.842387465157E-01  0.886851609697E-01  0.934365561930E-01  0.985170462296E-01  0.103952631670E+00
  0.109771318308E+00  0.116003236865E+00  0.122680762254E+00  0.129838630426E+00  0.137514050425E+00
  0.145746808719E+00  0.154579362245E+00  0.164056915931E+00  0.174227479568E+00  0.185141898023E+00
  0.196853847671E+00  0.209419790735E+00  0.222898877848E+00  0.237352787659E+00  0.252845490627E+00
  0.269442922312E+00  0.287212549541E+00  0.306222810682E+00  0.326542409113E+00  0.348239436677E+00
  0.371380301697E+00  0.396028433978E+00  0.422242737248E+00  0.450075757965E+00  0.479571538351E+00
  0.510763121318E+00  0.543669675850E+00  0.578293213761E+00  0.614614873045E+00  0.652590749837E+00
  0.692147270797E+00  0.733176111403E+00  0.775528683831E+00  0.819010241778E+00  0.863373679567E+00
  0.908313140146E+00  0.953457591944E+00  0.998364588678E+00  0.104251448953E+01  0.108530548954E+01
  0.112604989102E+01  0.116397213429E+01  0.119820919747E+01  0.122781406588E+01  0.125176305424E+01
  0.126896783142E+01  0.127829303433E+01  0.127858034929E+01  0.126867986722E+01  0.124748935869E+01
  0.121400358699E+01  0.116757091417E+01  0.110808414746E+01  0.103559908248E+01  0.000000000000E+00
  0.000000000000E+00  0.000000000000E+00  0.000000000000E+00  0.000000000000E+00  0.000000000000E+00
  0.000000000000E+00  0.000000000000E+00  0.000000000000E+00  0.000000000000E+00  0.000000000000E+00
  0.000000000000E+00  0.000000000000E+00  0.000000000000E+00  0.000000000000E+00  0.000000000000E+00
  0.000000000000E+00  0.000000000000E+00  0.000000000000E+00  0.000000000000E+00  0.000000000000E+00
  0.000000000000E+00  0.000000000000E+00  0.000000000000E+00  0.000000000000E+00  0.000000000000E+00
  0.000000000000E+00  0.000000000000E+00  0.000000000000E+00  0.000000000000E+00  0.000000000000E+00
  0.000000000000E+00  0.000000000000E+00  0.000000000000E+00  0.000000000000E+00
 ae wavefunction
 -0.851303283578E-02 -0.874395347697E-02 -0.898103038160E-02 -0.922442184745E-02 -0.947428986783E-02
 -0.973080019515E-02 -0.999412240384E-02 -0.102644299527E-01 -0.105419002463E-01 -0.108267146958E-01
 -0.111190587781E-01 -0.114191220941E-01 -0.117270984248E-01 -0.120431857865E-01 -0.123675864830E-01
 -0.127005071558E-01 -0.130421588322E-01 -0.133927569695E-01 -0.137525214963E-01 -0.141216768510E-01
 -0.145004520148E-01 -0.148890805412E-01 -0.152878005809E-01 -0.156968549002E-01 -0.161164908952E-01
 -0.165469605984E-01 -0.169885206787E-01 -0.174414324347E-01 -0.179059617789E-01 -0.183823792140E-01
 -0.188709597993E-01 -0.193719831070E-01 -0.198857331681E-01 -0.204124984056E-01 -0.209525715560E-01
 -0.215062495769E-01 -0.220738335396E-01 -0.226556285072E-01 -0.232519433951E-01 -0.238630908138E-01
 -0.244893868933E-01 -0.251311510864E-01 -0.257887059507E-01 -0.264623769073E-01 -0.271524919752E-01
 -0.278593814783E-01 -0.285833777259E-01 -0.293248146627E-01 -0.300840274866E-01 -0.308613522338E-01
 -0.316571253279E-01 -0.324716830908E-01 -0.333053612137E-01 -0.341584941853E-01 -0.350314146754E-01
 -0.359244528697E-01 -0.368379357553E-01 -0.377721863519E-01 -0.387275228866E-01 -0.397042579100E-01
 -0.407026973479E-01 -0.417231394883E-01 -0.427658738973E-01 -0.438311802617E-01 -0.449193271547E-01
 -0.460305707198E-01 -0.471651532686E-01 -0.483233017896E-01 -0.495052263625E-01 -0.507111184732E-01
 -0.519411492259E-01 -0.531954674466E-01 -0.544741976734E-01 -0.557774380283E-01 -0.571052579659E-01
 -0.584576958931E-01 -0.598347566548E-01 -0.612364088804E-01 -0.626625821849E-01 -0.641131642206E-01
 -0.655879975719E-01 -0.670868764901E-01 -0.686095434604E-01 -0.701556855982E-01 -0.717249308680E-01
 -0.733168441204E-01 -0.749309229424E-01 -0.765665933172E-01 -0.782232050887E-01 -0.799000272268E-01
 -0.815962428922E-01 -0.833109442952E-01 -0.850431273497E-01 -0.867916861190E-01 -0.885554070541E-01
 -0.903329630257E-01 -0.921229071509E-01 -0.939236664184E-01 -0.957335351170E-01 -0.975506680729E-01
 -0.993730737050E-01 -0.101198606907E+00 -0.103024961769E+00 -0.104849664154E+00 -0.106670064146E+00
 -0.108483328391E+00 -0.110286432345E+00 -0.112076152482E+00 -0.113849058454E+00 -0.115601505273E+00
 -0.117329625533E+00 -0.119029321728E+00 -0.120696258704E+00 -0.122325856314E+00 -0.123913282317E+00
 -0.125453445618E+00 -0.126940989885E+00 -0.128370287661E+00 -0.129735435034E+00 -0.131030246979E+00
 -0.132248253463E+00 -0.133382696441E+00 -0.134426527861E+00 -0.135372408809E+00 -0.136212709949E+00
 -0.136939513400E+00 -0.137544616222E+00 -0.138019535690E+00 -0.138355516535E+00 -0.138543540366E+00
 -0.138574337462E+00 -0.138438401178E+00 -0.138126005177E+00 -0.137627223742E+00 -0.136931955420E+00
 -0.136029950248E+00 -0.134910840838E+00 -0.133564177597E+00 -0.131979468346E+00 -0.130146222640E+00
 -0.128054001050E+00 -0.125692469702E+00 -0.123051460327E+00 -0.120121036112E+00 -0.116891563566E+00
 -0.113353790666E+00 -0.109498931465E+00 -0.105318757345E+00 -0.100805695069E+00 -0.959529317062E-01
 -0.907545264902E-01 -0.852055295911E-01 -0.793021077140E-01 -0.730416763587E-01 -0.664230384829E-01
 -0.594465292066E-01 -0.521141660802E-01 -0.444298043084E-01 -0.363992961803E-01 -0.280306537995E-01
 -0.193342140425E-01 -0.103228044969E-01 -0.101190895118E-02  0.858016917851E-02  0.184321472802E-01
  0.285196098169E-01  0.388148626054E-01  0.492867974763E-01  0.599007699238E-01  0.706184926337E-01
  0.813979480982E-01  0.921933238886E-01  0.102954974513E+00  0.113629414105E+00  0.124159344446E+00
  0.134483722970E+00  0.144537875471E+00  0.154253658213E+00  0.163559674035E+00  0.172381546862E+00
  0.180642258826E+00  0.188262553849E+00  0.195161411226E+00  0.201256592262E+00  0.206465262520E+00
  0.210704691522E+00  0.213893030993E+00  0.215950171735E+00  0.216798678137E+00  0.216364798021E+00
  0.214579544065E+00  0.211379841435E+00  0.206709734444E+00  0.200521643094E+00  0.192777658270E+00
  0.183450862110E+00  0.172526657750E+00  0.160004090292E+00  0.145897138396E+00  0.130235953612E+00
  0.113068022278E+00  0.944592227720E-01  0.744947490654E-01  0.532798700814E-01  0.309404933269E-01
  0.762350092736E-02 -0.165031733271E-01 -0.412507558016E-01 -0.664101609962E-01 -0.917528596655E-01
 -0.117032107734E+00 -0.141984554203E+00 -0.166332245172E+00 -0.189785040817E+00 -0.212043460932E+00
 -0.232801969342E+00 -0.251752695180E+00 -0.268589569539E+00 -0.283012835932E+00 -0.294733878678E+00
 -0.303480306543E+00 -0.309001223272E+00 -0.311072607413E+00 -0.309502711992E+00 -0.304137383494E+00
 -0.294865191596E+00 -0.281622255726E+00 -0.264396650853E+00 -0.243232272131E+00 -0.218232036508E+00
 -0.189560299582E+00 -0.157444369108E+00 -0.122175003101E+00 -0.841057916303E-01 -0.436513373282E-01
 -0.128417054546E-02  0.424696398224E-01  0.870361899589E-01  0.131800735603E+00  0.176115909812E+00
  0.219311033236E+00  0.260702301244E+00  0.299603552267E+00  0.335337317354E+00  0.367246006916E+00
  0.394703402371E+00  0.417126819055E+00  0.433989933594E+00  0.444835425360E+00  0.449286310125E+00
  0.447055451665E+00  0.437953299894E+00  0.421893953685E+00  0.398899476836E+00  0.369102289956E+00
  0.332745474286E+00  0.290180919320E+00  0.241865362204E+00  0.188354457567E+00  0.130295069606E+00
  0.684160027957E-01  0.351739605806E-02 -0.635409935674E-01 -0.131852393184E+00 -0.200476279682E+00
 -0.268452087451E+00 -0.334813137159E+00 -0.398600564333E+00 -0.458877028202E+00 -0.514739982644E+00
 -0.565334298388E+00 -0.609864035024E+00 -0.647603173772E+00 -0.677905147536E+00 -0.700211040854E+00
 -0.714056399890E+00 -0.719076677462E+00 -0.715011419057E+00 -0.701707331046E+00 -0.679120327306E+00
 -0.647316547128E+00 -0.606472229098E+00 -0.556872281404E+00 -0.498907428340E+00 -0.433069896455E+00
 -0.359947701721E+00 -0.280217663995E+00 -0.194637326712E+00 -0.104035975356E+00 -0.930496447767E-02
  0.886124393161E-01  0.188731495418E+00  0.290036517131E+00  0.391491312011E+00  0.492049376726E+00
  0.590663702403E+00  0.686296073040E+00  0.777925758666E+00  0.864557537441E+00  0.945229013225E+00
  0.101901723266E+01  0.108504464451E+01  0.114248447066E+01  0.119056557901E+01  0.122857697078E+01
  0.125587199474E+01  0.127187243425E+01  0.127607267179E+01  0.126804414407E+01  0.124744048493E+01
  0.121400358699E+01  0.116757091417E+01  0.110808414746E+01  0.103559908248E+01  0.000000000000E+00
  0.000000000000E+00  0.000000000000E+00  0.000000000000E+00  0.000000000000E+00  0.000000000000E+00
  0.000000000000E+00  0.000000000000E+00  0.000000000000E+00  0.000000000000E+00  0.000000000000E+00
  0.000000000000E+00  0.000000000000E+00  0.000000000000E+00  0.000000000000E+00  0.000000000000E+00
  0.000000000000E+00  0.000000000000E+00  0.000000000000E+00  0.000000000000E+00  0.000000000000E+00
  0.000000000000E+00  0.000000000000E+00  0.000000000000E+00  0.000000000000E+00  0.000000000000E+00
  0.000000000000E+00  0.000000000000E+00  0.000000000000E+00  0.000000000000E+00  0.000000000000E+00
  0.000000000000E+00  0.000000000000E+00  0.000000000000E+00  0.000000000000E+00
 End of Dataset
  PAW_PBE Te 08Apr2002                   
   6.00000000000000     
 parameters from PSCTR are:
   VRHFIN =Te: s2p4
   LEXCH  = PE
   EATOM  =   223.2721 eV,   16.4100 Ry

   TITEL  = PAW_PBE Te 08Apr2002
   LULTRA =        F    use ultrasoft PP ?
   IUNSCR =        1    unscreen: 0-lin 1-nonlin 2-no
   RPACOR =    2.200    partial core radius
   POMASS =  127.600; ZVAL   =    6.000    mass and valenz
   RCORE  =    2.300    outmost cutoff radius
   RWIGS  =    2.900; RWIGS  =    1.535    wigner-seitz radius (au A)
   ENMAX  =  174.982; ENMIN  =  131.236 eV
   ICORE  =        3    local potential
   LCOR   =        T    correct aug charges
   LPAW   =        T    paw PP
   EAUG   =  368.792
   DEXC   =    0.000
   RMAX   =    2.345    core radius for proj-oper
   RAUG   =    1.300    factor for augmentation sphere
   RDEP   =    2.397    radius for radial grids
   RDEPT  =    2.174    core radius for aug-charge
 
   Atomic configuration
   13 entries
     n  l   j            E        occ.
     1  0  0.50    -31621.2075   2.0000
     2  0  0.50     -4848.7941   2.0000
     2  1  1.50     -4352.1960   6.0000
     3  0  0.50      -964.9612   2.0000
     3  1  1.50      -803.6179   6.0000
     3  2  2.50      -559.8710  10.0000
     4  0  0.50      -164.3522   2.0000
     4  1  1.50      -114.3756   6.0000
     4  2  2.50       -41.6483  10.0000
     5  0  0.50       -15.1072   2.0000
     5  1  0.50        -5.9526   4.0000
     5  2  1.50        -5.4423   0.0000
     4  3  2.50        -5.4423   0.0000
   Description
     l       E           TYP  RCUT    TYP  RCUT
     0    -15.1072389     23  2.300
     0    -16.4678215     23  2.300
     1     -5.9526306     23  2.300
     1     -2.4873968     23  2.300
     2     -5.4423304     23  2.300
     3     -1.3605826     23  2.300
   Error from kinetic energy argument (eV)
   NDATA  =      100
   STEP   =   20.000   1.050
  26.7      24.1      22.8      20.4      19.3      17.2      15.3      14.4
  12.7      11.2      10.5      9.15      7.98      6.94      6.02      5.20
  4.49      3.86      3.32      2.63      2.25      1.92      1.51      1.28
  1.09     0.856     0.672     0.572     0.451     0.356     0.283     0.226
 0.182     0.148     0.121     0.996E-01 0.778E-01 0.652E-01 0.519E-01 0.440E-01
 0.354E-01 0.285E-01 0.230E-01 0.184E-01 0.148E-01 0.118E-01 0.939E-02 0.712E-02
 0.577E-02 0.458E-02 0.381E-02 0.342E-02 0.313E-02 0.296E-02 0.281E-02 0.269E-02
 0.253E-02 0.229E-02 0.200E-02 0.170E-02 0.143E-02 0.119E-02 0.101E-02 0.874E-03
 0.802E-03 0.748E-03 0.703E-03 0.651E-03 0.575E-03 0.501E-03 0.418E-03 0.352E-03
 0.306E-03 0.279E-03 0.258E-03 0.241E-03 0.216E-03 0.187E-03 0.156E-03 0.135E-03
 0.120E-03 0.111E-03 0.103E-03 0.909E-04 0.774E-04 0.659E-04 0.583E-04 0.535E-04
 0.491E-04 0.433E-04 0.365E-04 0.319E-04 0.288E-04 0.266E-04 0.234E-04 0.199E-04
 0.173E-04 0.160E-04 0.144E-04 0.125E-04
END of PSCTR-controll parameters
 local part
   81.2582175088937     
  0.43287524E+01  0.43585095E+01  0.44300409E+01  0.45490556E+01  0.47152452E+01
  0.49281735E+01  0.51872729E+01  0.54918418E+01  0.58410420E+01  0.62338975E+01
  0.66692960E+01  0.71459912E+01  0.76626078E+01  0.82176479E+01  0.88094982E+01
  0.94364392E+01  0.10096653E+02  0.10788231E+02  0.11509184E+02  0.12257449E+02
  0.13030892E+02  0.13827318E+02  0.14644477E+02  0.15480067E+02  0.16331740E+02
  0.17197112E+02  0.18073764E+02  0.18959255E+02  0.19851125E+02  0.20746906E+02
  0.21644128E+02  0.22540329E+02  0.23433062E+02  0.24319900E+02  0.25198447E+02
  0.26066342E+02  0.26921268E+02  0.27760954E+02  0.28583188E+02  0.29385816E+02
  0.30166753E+02  0.30923986E+02  0.31655585E+02  0.32359700E+02  0.33034576E+02
  0.33678549E+02  0.34290059E+02  0.34867647E+02  0.35409962E+02  0.35915765E+02
  0.36383928E+02  0.36813443E+02  0.37203416E+02  0.37553076E+02  0.37861773E+02
  0.38128980E+02  0.38354294E+02  0.38537437E+02  0.38678254E+02  0.38776716E+02
  0.38832916E+02  0.38847068E+02  0.38819505E+02  0.38750680E+02  0.38641159E+02
  0.38491620E+02  0.38302850E+02  0.38075741E+02  0.37811285E+02  0.37510573E+02
  0.37174786E+02  0.36805194E+02  0.36403149E+02  0.35970080E+02  0.35507485E+02
  0.35016930E+02  0.34500037E+02  0.33958480E+02  0.33393982E+02  0.32808300E+02
  0.32203229E+02  0.31580585E+02  0.30942207E+02  0.30289944E+02  0.29625651E+02
  0.28951182E+02  0.28268384E+02  0.27579089E+02  0.26885107E+02  0.26188222E+02
  0.25490184E+02  0.24792704E+02  0.24097448E+02  0.23406032E+02  0.22720016E+02
  0.22040900E+02  0.21370119E+02  0.20709041E+02  0.20058960E+02  0.19421094E+02
  0.18796581E+02  0.18186480E+02  0.17591762E+02  0.17013314E+02  0.16451935E+02
  0.15908336E+02  0.15383137E+02  0.14876869E+02  0.14389976E+02  0.13922810E+02
  0.13475636E+02  0.13048634E+02  0.12641897E+02  0.12255438E+02  0.11889186E+02
  0.11542996E+02  0.11216645E+02  0.10909841E+02  0.10622222E+02  0.10353364E+02
  0.10102781E+02  0.98699339E+01  0.96542299E+01  0.94550309E+01  0.92716561E+01
  0.91033876E+01  0.89494749E+01  0.88091398E+01  0.86815809E+01  0.85659790E+01
  0.84615017E+01  0.83673078E+01  0.82825525E+01  0.82063918E+01  0.81379867E+01
  0.80765077E+01  0.80211387E+01  0.79710810E+01  0.79255568E+01  0.78838128E+01
  0.78451231E+01  0.78087922E+01  0.77741579E+01  0.77405932E+01  0.77075091E+01
  0.76743557E+01  0.76406244E+01  0.76058487E+01  0.75696053E+01  0.75315150E+01
  0.74912425E+01  0.74484970E+01  0.74030318E+01  0.73546435E+01  0.73031720E+01
  0.72484990E+01  0.71905468E+01  0.71292772E+01  0.70646900E+01  0.69968207E+01
  0.69257391E+01  0.68515470E+01  0.67743758E+01  0.66943842E+01  0.66117561E+01
  0.65266972E+01  0.64394334E+01  0.63502074E+01  0.62592763E+01  0.61669090E+01
  0.60733837E+01  0.59789847E+01  0.58840008E+01  0.57887219E+01  0.56934372E+01
  0.55984324E+01  0.55039880E+01  0.54103765E+01  0.53178611E+01  0.52266936E+01
  0.51371126E+01  0.50493420E+01  0.49635899E+01  0.48800473E+01  0.47988869E+01
  0.47202627E+01  0.46443089E+01  0.45711397E+01  0.45008489E+01  0.44335096E+01
  0.43691744E+01  0.43078755E+01  0.42496249E+01  0.41944153E+01  0.41422199E+01
  0.40929943E+01  0.40466762E+01  0.40031873E+01  0.39624339E+01  0.39243083E+01
  0.38886899E+01  0.38554465E+01  0.38244358E+01  0.37955067E+01  0.37685006E+01
  0.37432530E+01  0.37195952E+01  0.36973550E+01  0.36763590E+01  0.36564333E+01
  0.36374056E+01  0.36191058E+01  0.36013675E+01  0.35840296E+01  0.35669368E+01
  0.35499409E+01  0.35329016E+01  0.35156877E+01  0.34981775E+01  0.34802595E+01
  0.34618330E+01  0.34428089E+01  0.34231093E+01  0.34026685E+01  0.33814326E+01
  0.33593601E+01  0.33364211E+01  0.33125978E+01  0.32878837E+01  0.32622837E+01
  0.32358134E+01  0.32084986E+01  0.31803748E+01  0.31514865E+01  0.31218868E+01
  0.30916360E+01  0.30608015E+01  0.30294568E+01  0.29976802E+01  0.29655545E+01
  0.29331658E+01  0.29006027E+01  0.28679554E+01  0.28353147E+01  0.28027713E+01
  0.27704149E+01  0.27383335E+01  0.27066125E+01  0.26753340E+01  0.26445763E+01
  0.26144131E+01  0.25849130E+01  0.25561390E+01  0.25281481E+01  0.25009908E+01
  0.24747108E+01  0.24493449E+01  0.24249225E+01  0.24014662E+01  0.23789907E+01
  0.23575038E+01  0.23370060E+01  0.23174908E+01  0.22989449E+01  0.22813484E+01
  0.22646750E+01  0.22488928E+01  0.22339643E+01  0.22198468E+01  0.22064932E+01
  0.21938523E+01  0.21818694E+01  0.21704868E+01  0.21596446E+01  0.21492807E+01
  0.21393323E+01  0.21297354E+01  0.21204265E+01  0.21113420E+01  0.21024198E+01
  0.20935989E+01  0.20848206E+01  0.20760285E+01  0.20671691E+01  0.20581924E+01
  0.20490518E+01  0.20397050E+01  0.20301136E+01  0.20202440E+01  0.20100671E+01
  0.19995588E+01  0.19886998E+01  0.19774756E+01  0.19658770E+01  0.19538993E+01
  0.19415430E+01  0.19288129E+01  0.19157188E+01  0.19022743E+01  0.18884976E+01
  0.18744104E+01  0.18600380E+01  0.18454091E+01  0.18305549E+01  0.18155095E+01
  0.18003088E+01  0.17849905E+01  0.17695936E+01  0.17541582E+01  0.17387246E+01
  0.17233335E+01  0.17080252E+01  0.16928394E+01  0.16778148E+01  0.16629887E+01
  0.16483970E+01  0.16340732E+01  0.16200489E+01  0.16063528E+01  0.15930113E+01
  0.15800474E+01  0.15674812E+01  0.15553296E+01  0.15436059E+01  0.15323204E+01
  0.15214795E+01  0.15110865E+01  0.15011411E+01  0.14916397E+01  0.14825754E+01
  0.14739383E+01  0.14657151E+01  0.14578901E+01  0.14504447E+01  0.14433578E+01
  0.14366063E+01  0.14301649E+01  0.14240069E+01  0.14181040E+01  0.14124269E+01
  0.14069453E+01  0.14016284E+01  0.13964453E+01  0.13913648E+01  0.13863562E+01
  0.13813894E+01  0.13764350E+01  0.13714647E+01  0.13664515E+01  0.13613700E+01
  0.13561965E+01  0.13509093E+01  0.13454888E+01  0.13399174E+01  0.13341801E+01
  0.13282643E+01  0.13221597E+01  0.13158588E+01  0.13093564E+01  0.13026499E+01
  0.12957395E+01  0.12886275E+01  0.12813188E+01  0.12738206E+01  0.12661423E+01
  0.12582954E+01  0.12502932E+01  0.12421509E+01  0.12338851E+01  0.12255140E+01
  0.12170569E+01  0.12085339E+01  0.11999660E+01  0.11913748E+01  0.11827822E+01
  0.11742101E+01  0.11656806E+01  0.11572151E+01  0.11488348E+01  0.11405601E+01
  0.11324106E+01  0.11244047E+01  0.11165597E+01  0.11088914E+01  0.11014141E+01
  0.10941407E+01  0.10870821E+01  0.10802476E+01  0.10736447E+01  0.10672787E+01
  0.10611533E+01  0.10552701E+01  0.10496290E+01  0.10442277E+01  0.10390623E+01
  0.10341269E+01  0.10294142E+01  0.10249150E+01  0.10206188E+01  0.10165135E+01
  0.10125860E+01  0.10088219E+01  0.10052060E+01  0.10017221E+01  0.99835365E+00
  0.99508338E+00  0.99189382E+00  0.98876729E+00  0.98568617E+00  0.98263301E+00
  0.97959066E+00  0.97654252E+00  0.97347258E+00  0.97036564E+00  0.96720742E+00
  0.96398465E+00  0.96068520E+00  0.95729819E+00  0.95381404E+00  0.95022453E+00
  0.94652288E+00  0.94270377E+00  0.93876337E+00  0.93469937E+00  0.93051094E+00
  0.92619876E+00  0.92176495E+00  0.91721307E+00  0.91254801E+00  0.90777597E+00
  0.90290437E+00  0.89794172E+00  0.89289754E+00  0.88778228E+00  0.88260716E+00
  0.87738408E+00  0.87212546E+00  0.86684418E+00  0.86155337E+00  0.85626636E+00
  0.85099650E+00  0.84575702E+00  0.84056097E+00  0.83542100E+00  0.83034933E+00
  0.82535758E+00  0.82045668E+00  0.81565677E+00  0.81096714E+00  0.80639611E+00
  0.80195099E+00  0.79763802E+00  0.79346234E+00  0.78942792E+00  0.78553758E+00
  0.78179292E+00  0.77819439E+00  0.77474122E+00  0.77143149E+00  0.76826217E+00
  0.76522909E+00  0.76232711E+00  0.75955005E+00  0.75689088E+00  0.75434173E+00
  0.75189399E+00  0.74953842E+00  0.74726520E+00  0.74506409E+00  0.74292448E+00
  0.74083550E+00  0.73878615E+00  0.73676537E+00  0.73476216E+00  0.73276570E+00
  0.73076541E+00  0.72875111E+00  0.72671305E+00  0.72464202E+00  0.72252945E+00
  0.72036744E+00  0.71814887E+00  0.71586741E+00  0.71351760E+00  0.71109487E+00
  0.70859557E+00  0.70601700E+00  0.70335743E+00  0.70061609E+00  0.69779318E+00
  0.69488982E+00  0.69190809E+00  0.68885094E+00  0.68572218E+00  0.68252641E+00
  0.67926898E+00  0.67595590E+00  0.67259382E+00  0.66918991E+00  0.66575179E+00
  0.66228749E+00  0.65880534E+00  0.65531387E+00  0.65182176E+00  0.64833775E+00
  0.64487052E+00  0.64142867E+00  0.63802055E+00  0.63465426E+00  0.63133753E+00
  0.62807764E+00  0.62488141E+00  0.62175506E+00  0.61870424E+00  0.61573393E+00
  0.61284842E+00  0.61005126E+00  0.60734526E+00  0.60473247E+00  0.60221413E+00
  0.59979071E+00  0.59746187E+00  0.59522652E+00  0.59308278E+00  0.59102807E+00
  0.58905909E+00  0.58717188E+00  0.58536187E+00  0.58362395E+00  0.58195247E+00
  0.58034136E+00  0.57878416E+00  0.57727407E+00  0.57580406E+00  0.57436691E+00
  0.57295525E+00  0.57156171E+00  0.57017891E+00  0.56879959E+00  0.56741662E+00
  0.56602315E+00  0.56461258E+00  0.56317870E+00  0.56171568E+00  0.56021816E+00
  0.55868129E+00  0.55710075E+00  0.55547279E+00  0.55379428E+00  0.55206269E+00
  0.55027614E+00  0.54843342E+00  0.54653395E+00  0.54457783E+00  0.54256580E+00
  0.54049922E+00  0.53838008E+00  0.53621097E+00  0.53399498E+00  0.53173577E+00
  0.52943743E+00  0.52710449E+00  0.52474186E+00  0.52235476E+00  0.51994870E+00
  0.51752940E+00  0.51510275E+00  0.51267471E+00  0.51025133E+00  0.50783861E+00
  0.50544248E+00  0.50306875E+00  0.50072303E+00  0.49841067E+00  0.49613674E+00
  0.49390599E+00  0.49172277E+00  0.48959099E+00  0.48751416E+00  0.48549527E+00
  0.48353683E+00  0.48164083E+00  0.47980869E+00  0.47804134E+00  0.47633910E+00
  0.47470178E+00  0.47312863E+00  0.47161837E+00  0.47016920E+00  0.46877883E+00
  0.46744452E+00  0.46616309E+00  0.46493097E+00  0.46374422E+00  0.46259860E+00
  0.46148959E+00  0.46041243E+00  0.45936219E+00  0.45833380E+00  0.45732211E+00
  0.45632192E+00  0.45532806E+00  0.45433541E+00  0.45333897E+00  0.45233392E+00
  0.45131562E+00  0.45027969E+00  0.44922204E+00  0.44813891E+00  0.44702687E+00
  0.44588289E+00  0.44470435E+00  0.44348904E+00  0.44223520E+00  0.44094152E+00
  0.43960718E+00  0.43823178E+00  0.43681544E+00  0.43535872E+00  0.43386262E+00
  0.43232859E+00  0.43075851E+00  0.42915462E+00  0.42751957E+00  0.42585629E+00
  0.42416807E+00  0.42245843E+00  0.42073113E+00  0.41899015E+00  0.41723959E+00
  0.41548370E+00  0.41372678E+00  0.41197316E+00  0.41022718E+00  0.40849310E+00
  0.40677509E+00  0.40507718E+00  0.40340322E+00  0.40175686E+00  0.40014149E+00
  0.39856024E+00  0.39701592E+00  0.39551102E+00  0.39404769E+00  0.39262771E+00
  0.39125249E+00  0.38992305E+00  0.38864001E+00  0.38740358E+00  0.38621357E+00
  0.38506942E+00  0.38397016E+00  0.38291445E+00  0.38190059E+00  0.38092657E+00
  0.37999005E+00  0.37908840E+00  0.37821873E+00  0.37737795E+00  0.37656273E+00
  0.37576961E+00  0.37499497E+00  0.37423511E+00  0.37348627E+00  0.37274465E+00
  0.37200649E+00  0.37126805E+00  0.37052569E+00  0.36977591E+00  0.36901534E+00
  0.36824080E+00  0.36744934E+00  0.36663822E+00  0.36580499E+00  0.36494746E+00
  0.36406376E+00  0.36315230E+00  0.36221186E+00  0.36124152E+00  0.36024073E+00
  0.35920927E+00  0.35814727E+00  0.35705520E+00  0.35593387E+00  0.35478440E+00
  0.35360822E+00  0.35240706E+00  0.35118289E+00  0.34993796E+00  0.34867471E+00
  0.34739580E+00  0.34610405E+00  0.34480242E+00  0.34349398E+00  0.34218190E+00
  0.34086938E+00  0.33955964E+00  0.33825591E+00  0.33696135E+00  0.33567904E+00
  0.33441198E+00  0.33316300E+00  0.33193479E+00  0.33072985E+00  0.32955046E+00
  0.32839869E+00  0.32727636E+00  0.32618502E+00  0.32512595E+00  0.32410017E+00
  0.32310836E+00  0.32215096E+00  0.32122805E+00  0.32033946E+00  0.31948469E+00
  0.31866298E+00  0.31787326E+00  0.31711422E+00  0.31638430E+00  0.31568170E+00
  0.31500442E+00  0.31435026E+00  0.31371685E+00  0.31310168E+00  0.31250212E+00
  0.31191545E+00  0.31133885E+00  0.31076951E+00  0.31020455E+00  0.30964116E+00
  0.30907653E+00  0.30850794E+00  0.30793277E+00  0.30734852E+00  0.30675281E+00
  0.30614347E+00  0.30551847E+00  0.30487600E+00  0.30421447E+00  0.30353251E+00
  0.30282898E+00  0.30210302E+00  0.30135399E+00  0.30058153E+00  0.29978555E+00
  0.29896621E+00  0.29812393E+00  0.29725939E+00  0.29637350E+00  0.29546740E+00
  0.29454246E+00  0.29360023E+00  0.29264246E+00  0.29167106E+00  0.29068808E+00
  0.28969571E+00  0.28869622E+00  0.28769198E+00  0.28668542E+00  0.28567899E+00
  0.28467515E+00  0.28367637E+00  0.28268504E+00  0.28170352E+00  0.28073405E+00
  0.27977879E+00  0.27883976E+00  0.27791884E+00  0.27701772E+00  0.27613796E+00
  0.27528088E+00  0.27444765E+00  0.27363917E+00  0.27285618E+00  0.27209914E+00
  0.27136833E+00  0.27066376E+00  0.26998522E+00  0.26933229E+00  0.26870430E+00
  0.26810041E+00  0.26751954E+00  0.26696044E+00  0.26642169E+00  0.26590169E+00
  0.26539873E+00  0.26491095E+00  0.26443639E+00  0.26397299E+00  0.26351865E+00
  0.26307117E+00  0.26262839E+00  0.26218808E+00  0.26174808E+00  0.26130623E+00
  0.26086046E+00  0.26040876E+00  0.25994923E+00  0.25948007E+00  0.25899963E+00
  0.25850640E+00  0.25799902E+00  0.25747630E+00  0.25693725E+00  0.25638104E+00
  0.25580705E+00  0.25521486E+00  0.25460425E+00  0.25397521E+00  0.25332793E+00
  0.25266279E+00  0.25198039E+00  0.25128149E+00  0.25056704E+00  0.24983815E+00
  0.24909607E+00  0.24834221E+00  0.24757810E+00  0.24680537E+00  0.24602575E+00
  0.24524104E+00  0.24445311E+00  0.24366385E+00  0.24287521E+00  0.24208910E+00
  0.24130743E+00  0.24053207E+00  0.23976484E+00  0.23900747E+00  0.23826163E+00
  0.23752886E+00  0.23681058E+00  0.23610810E+00  0.23542258E+00  0.23475501E+00
  0.23410624E+00  0.23347695E+00  0.23286764E+00  0.23227864E+00  0.23171009E+00
  0.23116194E+00  0.23063398E+00  0.23012582E+00  0.22963688E+00  0.22916644E+00
  0.22871361E+00  0.22827735E+00  0.22785651E+00  0.22744980E+00  0.22705582E+00
  0.22667310E+00  0.22630005E+00  0.22593504E+00  0.22557639E+00  0.22522238E+00
  0.22487128E+00  0.22452135E+00  0.22417089E+00  0.22381820E+00  0.22346168E+00
  0.22309976E+00  0.22273097E+00  0.22235393E+00  0.22196737E+00  0.22157014E+00
  0.22116121E+00  0.22073970E+00  0.22030486E+00  0.21985610E+00  0.21939298E+00
  0.21891523E+00  0.21842274E+00  0.21791554E+00  0.21739385E+00  0.21685804E+00
  0.21630863E+00  0.21574627E+00  0.21517178E+00  0.21458606E+00  0.21399018E+00
  0.21338529E+00  0.21277262E+00  0.21215351E+00  0.21152936E+00  0.21090162E+00
  0.21027180E+00  0.20964141E+00  0.20901201E+00  0.20838511E+00  0.20776223E+00
  0.20714486E+00  0.20653441E+00  0.20593225E+00  0.20533968E+00  0.20475789E+00
  0.20418799E+00  0.20363097E+00  0.20308772E+00  0.20255900E+00  0.20204542E+00
  0.20154748E+00  0.20106553E+00  0.20059977E+00  0.20015027E+00  0.19971694E+00
  0.19929954E+00  0.19889772E+00  0.19851097E+00  0.19813864E+00  0.19778000E+00
  0.19743416E+00  0.19710017E+00  0.19677695E+00  0.19646336E+00  0.19615818E+00
  0.19586012E+00  0.19556787E+00  0.19528004E+00  0.19499527E+00  0.19471214E+00
  0.19442929E+00  0.19414533E+00  0.19385893E+00  0.19356882E+00  0.19327376E+00
  0.19297260E+00  0.19266427E+00  0.19234776E+00  0.19202221E+00  0.19168683E+00
  0.19134094E+00  0.19098400E+00  0.19061557E+00  0.19023537E+00  0.18984322E+00
  0.18943907E+00  0.18902303E+00  0.18859532E+00  0.18815628E+00  0.18770637E+00
  0.18724619E+00  0.18677642E+00  0.18629786E+00  0.18581138E+00  0.18531795E+00
  0.18481861E+00  0.18431445E+00  0.18380664E+00  0.18329638E+00  0.18278487E+00
  0.18227337E+00  0.18176313E+00  0.18125537E+00  0.18075133E+00  0.18025217E+00
  0.17975906E+00  0.17927305E+00  0.17879519E+00  0.17832640E+00  0.17786756E+00
  0.17741943E+00  0.17698268E+00  0.17655790E+00  0.17614554E+00  0.17574596E+00
  0.17535939E+00  0.17498594E+00  0.17462563E+00  0.17427833E+00  0.17394381E+00
  0.17362171E+00  0.17331159E+00  0.17301288E+00  0.17272493E+00  0.17244700E+00
  0.17217826E+00  0.17191782E+00  0.17166471E+00  0.17141792E+00  0.17117638E+00
  0.17093899E+00  0.17070464E+00  0.17047219E+00  0.17024049E+00  0.17000843E+00
  0.16977489E+00  0.16953880E+00  0.16929914E+00  0.16905492E+00  0.16880522E+00
  0.16854921E+00  0.16828609E+00  0.16801520E+00  0.16773592E+00  0.16744775E+00
  0.16715029E+00  0.16684323E+00  0.16652636E+00  0.16619961E+00  0.16586299E+00
 gradient corrections used for XC
           5
 core charge-density (partial)
  0.32970131E+01  0.32952689E+01  0.32900415E+01  0.32813471E+01  0.32692124E+01
  0.32536748E+01  0.32347818E+01  0.32125911E+01  0.31871701E+01  0.31585957E+01
  0.31269537E+01  0.30923385E+01  0.30548528E+01  0.30146065E+01  0.29717168E+01
  0.29263073E+01  0.28785076E+01  0.28284522E+01  0.27762806E+01  0.27221359E+01
  0.26661648E+01  0.26085164E+01  0.25493421E+01  0.24887943E+01  0.24270265E+01
  0.23641919E+01  0.23004435E+01  0.22359331E+01  0.21708107E+01  0.21052244E+01
  0.20393192E+01  0.19732371E+01  0.19071166E+01  0.18410919E+01  0.17752927E+01
  0.17098443E+01  0.16448664E+01  0.15804736E+01  0.15167748E+01  0.14538730E+01
  0.13918653E+01  0.13308427E+01  0.12708897E+01  0.12120847E+01  0.11544996E+01
  0.10982002E+01  0.10432457E+01  0.98968898E+00  0.93757692E+00  0.88695013E+00
  0.83784325E+00  0.79028507E+00  0.74429866E+00  0.69990159E+00  0.65710609E+00
  0.61591928E+00  0.57634335E+00  0.53837584E+00  0.50200984E+00  0.46723425E+00
  0.43403400E+00  0.40239035E+00  0.37228112E+00  0.34368093E+00  0.31656147E+00
  0.29089177E+00  0.26663844E+00  0.24376588E+00  0.22223661E+00  0.20201141E+00
  0.18304963E+00  0.16530936E+00  0.14874770E+00  0.13332090E+00  0.11898463E+00
  0.10569414E+00  0.93404442E-01  0.82070476E-01  0.71647293E-01  0.62090197E-01
  0.53354886E-01  0.45397589E-01  0.38175190E-01  0.31645337E-01  0.25766545E-01
  0.20498293E-01  0.15801106E-01  0.11636625E-01  0.79676795E-02  0.47583374E-02
  0.19739558E-02 -0.41878099E-03 -0.24518293E-02 -0.41557628E-02 -0.55597554E-02
 -0.66915719E-02 -0.75775645E-02 -0.82426752E-02 -0.87104447E-02 -0.90030256E-02
 -0.91412013E-02 -0.91444087E-02 -0.90307655E-02 -0.88171010E-02 -0.85189901E-02
 -0.81507907E-02 -0.77256832E-02 -0.72557124E-02 -0.67518318E-02 -0.62239486E-02
 -0.56809709E-02 -0.51308552E-02 -0.45806550E-02 -0.40365695E-02 -0.35039929E-02
 -0.29875633E-02 -0.24912114E-02 -0.20182086E-02 -0.15712147E-02 -0.11523243E-02
 -0.76311286E-03 -0.40468062E-03 -0.77696071E-04  0.21756243E-03  0.48116648E-03
  0.71349902E-03  0.91521750E-03  0.10872187E-02  0.12306053E-02  0.13466545E-02
  0.14367885E-02  0.15025462E-02  0.15455578E-02  0.15675205E-02  0.15701763E-02
  0.15552919E-02  0.15246395E-02  0.14799808E-02  0.14230511E-02  0.13555465E-02
  0.12791116E-02  0.11953292E-02  0.11057119E-02  0.10116942E-02  0.91462647E-03
  0.81577030E-03  0.71629472E-03  0.61727367E-03  0.51968447E-03  0.42440728E-03
  0.33222537E-03  0.24382623E-03  0.15980343E-03  0.80659025E-04  0.68066451E-05
 -0.61424989E-04 -0.12378809E-03 -0.18011146E-03 -0.23029588E-03 -0.27430918E-03
 -0.31218124E-03 -0.34399876E-03 -0.36989999E-03 -0.39006949E-03 -0.40473278E-03
 -0.41415119E-03 -0.41861667E-03 -0.41844685E-03 -0.41398016E-03 -0.40557121E-03
 -0.39358631E-03 -0.37839931E-03 -0.36038756E-03 -0.33992829E-03 -0.31739512E-03
 -0.29315493E-03 -0.26756499E-03 -0.24097038E-03 -0.21370172E-03 -0.18607315E-03
 -0.15838063E-03 -0.13090047E-03 -0.10388824E-03 -0.77577756E-04 -0.52180530E-04
 -0.27885290E-04 -0.48578139E-05  0.16759046E-04  0.36845140E-04  0.55302618E-04
  0.72055351E-04  0.87048208E-04  0.10024619E-03  0.11163346E-03  0.12121223E-03
  0.12900163E-03  0.13503641E-03  0.13936567E-03  0.14205153E-03  0.14316768E-03
  0.14279808E-03  0.14103549E-03  0.13798014E-03  0.13373833E-03  0.12842109E-03
  0.12214291E-03  0.11502048E-03  0.10717149E-03  0.98713531E-04  0.89762981E-04
  0.80434067E-04  0.70837932E-04  0.61081809E-04  0.51268275E-04  0.41494589E-04
  0.31852113E-04  0.22425819E-04  0.13293886E-04  0.45273694E-05 -0.38100412E-05
 -0.11662185E-04 -0.18980523E-04 -0.25724152E-04 -0.31859755E-04 -0.37361491E-04
 -0.42210812E-04 -0.46396240E-04 -0.49913089E-04 -0.52763137E-04 -0.54954263E-04
 -0.56500056E-04 -0.57419379E-04 -0.57735927E-04 -0.57477751E-04 -0.56676782E-04
 -0.55368332E-04 -0.53590605E-04 -0.51384194E-04 -0.48791599E-04 -0.45856735E-04
 -0.42624470E-04 -0.39140163E-04 -0.35449236E-04 -0.31596752E-04 -0.27627030E-04
 -0.23583278E-04 -0.19507261E-04 -0.15438990E-04 -0.11416447E-04 -0.74753434E-05
 -0.36489067E-05  0.32300692E-07  0.35405274E-05  0.68509487E-05  0.99417505E-05
  0.12794183E-04  0.15392582E-04  0.17724368E-04  0.19780011E-04  0.21552973E-04
  0.23039627E-04  0.24239156E-04  0.25153428E-04  0.25786851E-04  0.26146223E-04
  0.26240556E-04  0.26080891E-04  0.25680112E-04  0.25052739E-04  0.24214729E-04
  0.23183261E-04  0.21976528E-04  0.20613530E-04  0.19113862E-04  0.17497511E-04
  0.15784662E-04  0.13995501E-04  0.12150038E-04  0.10267930E-04  0.83683191E-05
  0.64696846E-05  0.45897017E-05  0.27451180E-05  0.95164140E-06 -0.77615707E-06
 -0.24249265E-05 -0.39826049E-05 -0.54384737E-05 -0.67831976E-05 -0.80088514E-05
 -0.91089319E-05 -0.10078358E-04 -0.10913456E-04 -0.11611936E-04 -0.12172856E-04
 -0.12596573E-04 -0.12884687E-04 -0.13039977E-04 -0.13066327E-04 -0.12968645E-04
 -0.12752781E-04 -0.12425430E-04 -0.11994046E-04 -0.11466735E-04 -0.10852164E-04
 -0.10159453E-04 -0.93980827E-05 -0.85777877E-05 -0.77084622E-05 -0.68000636E-05
 -0.58625202E-05 -0.49056425E-05 -0.39390393E-05 -0.29720389E-05 -0.20136153E-05
 -0.10723214E-05 -0.15622743E-06  0.72713332E-06  0.15708120E-05  0.23684847E-05
  0.31144863E-05  0.38038360E-05  0.44322574E-05  0.49961902E-05  0.54927957E-05
  0.59199556E-05  0.62762644E-05  0.65610156E-05  0.67741825E-05  0.69163932E-05
  0.69889013E-05  0.69935513E-05  0.69327407E-05  0.68093784E-05  0.66268394E-05
  0.63889184E-05  0.60997794E-05  0.57639058E-05  0.53860482E-05  0.49711716E-05
  0.45244037E-05  0.40509823E-05  0.35562045E-05  0.30453765E-05  0.25237657E-05
  0.19965543E-05  0.14687957E-05  0.94537334E-06  0.43096232E-06 -0.70005232E-07
 -0.55337200E-06 -0.10152834E-05 -0.14522122E-05 -0.18609788E-05 -0.22387683E-05
 -0.25831436E-05 -0.28920541E-05 -0.31638419E-05 -0.33972427E-05 -0.35913846E-05
 -0.37457823E-05 -0.38603293E-05 -0.39352852E-05 -0.39712622E-05 -0.39692073E-05
 -0.39303827E-05 -0.38563443E-05 -0.37489180E-05 -0.36101741E-05 -0.34424009E-05
 -0.32480766E-05 -0.30298415E-05 -0.27904679E-05 -0.25328319E-05 -0.22598833E-05
 -0.19746170E-05 -0.16800443E-05 -0.13791657E-05 -0.10749436E-05 -0.77027713E-06
 -0.46797786E-06 -0.17074732E-06  0.11884395E-06  0.39837547E-06  0.66559394E-06
  0.91842832E-06  0.11550028E-05  0.13736478E-05  0.15729083E-05  0.17515506E-05
  0.19085666E-05  0.20431757E-05  0.21548253E-05  0.22431882E-05  0.23081592E-05
  0.23498489E-05  0.23685765E-05  0.23648601E-05  0.23394067E-05  0.22930994E-05
  0.22269845E-05  0.21422573E-05  0.20402465E-05  0.19223986E-05  0.17902611E-05
  0.16454654E-05  0.14897101E-05  0.13247432E-05  0.11523451E-05  0.97431181E-06
  0.79243767E-06  0.60849982E-06  0.42424241E-06  0.24136187E-06  0.61492989E-07
 -0.11380402E-06 -0.28305544E-06 -0.44488486E-06 -0.59802277E-06 -0.74131495E-06
 -0.87372958E-06 -0.99436303E-06 -0.11024444E-05 -0.11973386E-05 -0.12785484E-05
 -0.13457147E-05 -0.13986164E-05 -0.14371680E-05 -0.14614166E-05 -0.14715381E-05
 -0.14678317E-05 -0.14507141E-05 -0.14207120E-05 -0.13784545E-05 -0.13246650E-05
 -0.12601513E-05 -0.11857965E-05 -0.11025491E-05 -0.10114120E-05 -0.91343283E-06
 -0.80969242E-06 -0.70129476E-06 -0.58935618E-06 -0.47499495E-06 -0.35932117E-06
 -0.24342700E-06 -0.12837725E-06 -0.15200539E-07  0.95119022E-07  0.20164950E-06
  0.30351816E-06  0.39991775E-06  0.49011207E-06  0.57344068E-06  0.64932289E-06
  0.71726088E-06  0.77684197E-06  0.82774019E-06  0.86971684E-06  0.90262044E-06
  0.92638579E-06  0.94103229E-06  0.94666160E-06  0.94345457E-06  0.93166755E-06
  0.91162816E-06  0.88373048E-06  0.84842977E-06  0.80623682E-06  0.75771191E-06
  0.70345851E-06  0.64411670E-06  0.58035649E-06  0.51287104E-06  0.44236978E-06
  0.36957162E-06  0.29519822E-06  0.21996744E-06  0.14458693E-06  0.69747997E-07
 -0.38801739E-08 -0.75656048E-07 -0.14497082E-06 -0.21125308E-06 -0.27397308E-06
 -0.33264643E-06 -0.38683737E-06 -0.43616151E-06 -0.48028802E-06 -0.51894129E-06
 -0.55190210E-06 -0.57900817E-06 -0.60015427E-06 -0.61529178E-06 -0.62442771E-06
 -0.62762336E-06 -0.62499239E-06 -0.61669856E-06 -0.60295304E-06 -0.58401137E-06
 -0.56017008E-06 -0.53176305E-06 -0.49915759E-06 -0.46275034E-06 -0.42296299E-06
 -0.38023788E-06 -0.33503353E-06 -0.28782011E-06 -0.23907493E-06 -0.18927798E-06
 -0.13890749E-06 -0.88435741E-07 -0.38324855E-07  0.10977073E-07  0.59039715E-07
  0.10545397E-06  0.14983518E-06  0.19182598E-06  0.23109895E-06  0.26735886E-06
  0.30034455E-06  0.32983056E-06  0.35562830E-06  0.37758692E-06  0.39559382E-06
  0.40957478E-06  0.41949373E-06  0.42535226E-06  0.42718871E-06  0.42507700E-06
  0.41912517E-06  0.40947361E-06  0.39629310E-06  0.37978256E-06  0.36016663E-06
  0.33769306E-06  0.31262999E-06  0.28526302E-06  0.25589230E-06  0.22482948E-06
  0.19239462E-06  0.15891316E-06  0.12471282E-06  0.90120642E-07  0.55460003E-07
  0.21047818E-07 -0.12808189E-07 -0.45812064E-07 -0.77682031E-07 -0.10815272E-06
 -0.13697722E-06 -0.16392888E-06 -0.18880293E-06 -0.21141784E-06 -0.23161649E-06
 -0.24926702E-06 -0.26426348E-06 -0.27652624E-06 -0.28600217E-06 -0.29266448E-06
 -0.29651247E-06 -0.29757094E-06 -0.29588943E-06 -0.29154125E-06 -0.28462230E-06
 -0.27524977E-06 -0.26356056E-06 -0.24970969E-06 -0.23386851E-06 -0.21622276E-06
 -0.19697067E-06 -0.17632084E-06 -0.15449019E-06 -0.13170180E-06 -0.10818278E-06
 -0.84162143E-07 -0.59868680E-07 -0.35528923E-07 -0.11365135E-07  0.12406604E-07
  0.35578217E-07  0.57951343E-07  0.79338929E-07  0.99566679E-07  0.11847437E-06
  0.13591701E-06  0.15176584E-06  0.16590913E-06  0.17825290E-06  0.18872136E-06
  0.19725723E-06  0.20382190E-06  0.20839538E-06  0.21097614E-06  0.21158070E-06
  0.21024316E-06  0.20701452E-06  0.20196186E-06  0.19516748E-06  0.18672779E-06
  0.17675216E-06  0.16536171E-06  0.15268799E-06  0.13887152E-06  0.12406042E-06
  0.10840887E-06  0.92075628E-07  0.75222505E-07  0.58012832E-07  0.40609964E-07
  0.23175807E-07  0.58693829E-08 -0.11154548E-07 -0.27746800E-07 -0.43765000E-07
 -0.59074736E-07 -0.73550622E-07 -0.87077247E-07 -0.99550027E-07 -0.11087594E-06
 -0.12097414E-06 -0.12977645E-06 -0.13722774E-06 -0.14328616E-06 -0.14792328E-06
 -0.15112409E-06 -0.15288685E-06 -0.15322288E-06 -0.15215621E-06 -0.14972312E-06
 -0.14597154E-06 -0.14096046E-06 -0.13475914E-06 -0.12744633E-06 -0.11910933E-06
 -0.10984309E-06 -0.99749175E-07 -0.88934757E-07 -0.77511507E-07 -0.65594527E-07
 -0.53301238E-07 -0.40750281E-07 -0.28060420E-07 -0.15349471E-07 -0.27332567E-08
  0.96754051E-08  0.21767660E-07  0.33439530E-07  0.44592756E-07  0.55135585E-07
  0.64983476E-07  0.74059728E-07  0.82296032E-07  0.89632931E-07  0.96020196E-07
  0.10141711E-06  0.10579266E-06  0.10912566E-06  0.11140471E-06  0.11262818E-06
  0.11280403E-06  0.11194955E-06  0.11009105E-06  0.10726344E-06  0.10350978E-06
  0.98880761E-07  0.93434056E-07  0.87233725E-07  0.80349499E-07  0.72856056E-07
  0.64832258E-07  0.56360361E-07  0.47525218E-07  0.38413461E-07  0.29112693E-07
  0.19710677E-07  0.10294542E-07  0.95000823E-09 -0.82393626E-08 -0.17192883E-07
 -0.25833416E-07 -0.34088012E-07 -0.41888491E-07 -0.49171975E-07 -0.55881364E-07
 -0.61965749E-07 -0.67380763E-07 -0.72088870E-07 -0.76059585E-07 -0.79269621E-07
 -0.81702983E-07 -0.83350980E-07 -0.84212180E-07 -0.84292294E-07 -0.83604007E-07
 -0.82166741E-07 -0.80006360E-07 -0.77154833E-07 -0.73649835E-07 -0.69534314E-07
 -0.64856008E-07 -0.59666938E-07 -0.54022862E-07 -0.47982707E-07 -0.41607988E-07
 -0.34962204E-07 -0.28110236E-07 -0.21117732E-07 -0.14050507E-07 -0.69739441E-08
  0.47590469E-10  0.69513077E-08  0.13676538E-07  0.20165244E-07  0.26362497E-07
  0.32216926E-07  0.37681117E-07  0.42711979E-07  0.47271056E-07  0.51324804E-07
  0.54844806E-07  0.57807945E-07  0.60196529E-07  0.61998355E-07  0.63206732E-07
  0.63820449E-07  0.63843699E-07  0.63285947E-07  0.62161761E-07  0.60490599E-07
  0.58296547E-07  0.55608032E-07  0.52457492E-07  0.48881017E-07  0.44917965E-07
  0.40610554E-07  0.36003432E-07  0.31143238E-07  0.26078144E-07  0.20857401E-07
  0.15530873E-07  0.10148578E-07  0.47602328E-08 -0.58518703E-09 -0.58398820E-08
 -0.10957639E-07 -0.15894224E-07 -0.20607747E-07 -0.25059009E-07 -0.29211804E-07
 -0.33033208E-07 -0.36493816E-07 -0.39567955E-07 -0.42233856E-07 -0.44473790E-07
 -0.46274162E-07 -0.47625569E-07 -0.48522820E-07 -0.48964914E-07 -0.48954986E-07
 -0.48500212E-07 -0.47611679E-07 -0.46304227E-07 -0.44596254E-07 -0.42509497E-07
 -0.40068779E-07 -0.37301739E-07 -0.34238541E-07 -0.30911559E-07 -0.27355052E-07
 -0.23604824E-07 -0.19697879E-07 -0.15672066E-07 -0.11565726E-07 -0.74173379E-08
 -0.32651678E-08  0.85307199E-09  0.49005554E-08  0.88416616E-08  0.12642278E-07
  0.16270084E-07  0.19694819E-07  0.22888519E-07  0.25825739E-07  0.28483739E-07
  0.30842655E-07  0.32885629E-07  0.34598916E-07  0.35971965E-07  0.36997462E-07
  0.37671348E-07  0.37992807E-07  0.37964225E-07  0.37591119E-07  0.36882039E-07
  0.35848450E-07  0.34504578E-07  0.32867247E-07  0.30955682E-07  0.28791304E-07
  0.26397502E-07  0.23799391E-07  0.21023563E-07  0.18097823E-07  0.15050917E-07
  0.11912265E-07  0.87116803E-08  0.54790951E-08  0.22442898E-08 -0.96337395E-09
 -0.41152130E-08 -0.71834710E-08 -0.10141556E-07 -0.12964262E-07 -0.15627979E-07
 -0.18110881E-07 -0.20393095E-07 -0.22456856E-07 -0.24286635E-07 -0.25869245E-07
 -0.27193929E-07 -0.28252417E-07 -0.29038971E-07 -0.29550396E-07 -0.29786030E-07
 -0.29747719E-07 -0.29439761E-07 -0.28868829E-07 -0.28043883E-07 -0.26976049E-07
 -0.25678494E-07 -0.24166273E-07 -0.22456167E-07 -0.20566507E-07 -0.18516989E-07
 -0.16328471E-07 -0.14022774E-07 -0.11622465E-07 -0.91506483E-08 -0.66307465E-08
 -0.40862841E-08 -0.15406745E-08  0.98299040E-09  0.34621437E-08  0.58749401E-08
  0.82004434E-08  0.10418802E-07  0.12511413E-07  0.14461075E-07  0.16252117E-07
  0.17870529E-07  0.19304055E-07  0.20542285E-07  0.21576722E-07  0.22400830E-07
  0.23010068E-07  0.23401904E-07  0.23575806E-07  0.23533222E-07  0.23277540E-07
  0.22814027E-07  0.22149759E-07  0.21293530E-07  0.20255750E-07  0.19048327E-07
  0.17684540E-07  0.16178900E-07  0.14547004E-07  0.12805373E-07  0.10971297E-07
  0.90626648E-08  0.70977956E-08  0.50952659E-08  0.30737395E-08  0.10517977E-08
 -0.95222778E-09 -0.29204169E-08 -0.48354175E-08 -0.66805943E-08 -0.84401692E-08
 -0.10099353E-07 -0.11644464E-07 -0.13063039E-07 -0.14343926E-07 -0.15477372E-07
 -0.16455087E-07 -0.17270302E-07 -0.17917810E-07 -0.18393991E-07 -0.18696824E-07
 -0.18825883E-07 -0.18782320E-07 -0.18568835E-07 -0.18189627E-07 -0.17650340E-07
 -0.16957991E-07 -0.16120887E-07 -0.15148538E-07 -0.14051548E-07 -0.12841508E-07
 -0.11530882E-07 -0.10132876E-07 -0.86613114E-08 -0.71304958E-08 -0.55550821E-08
 -0.39499342E-08 -0.23299894E-08 -0.71012278E-09  0.89498685E-09  0.24709865E-08
  0.40039748E-08  0.54806211E-08  0.68882791E-08  0.82150916E-08  0.94500877E-08
  0.10583270E-07  0.11605692E-07  0.12509528E-07  0.13288122E-07  0.13936043E-07
  0.14449110E-07  0.14824415E-07  0.15060337E-07  0.15156534E-07  0.15113936E-07
  0.14934715E-07  0.14622249E-07  0.14181083E-07  0.13616865E-07  0.12936284E-07
  0.12146996E-07  0.11257545E-07  0.10277268E-07  0.92162080E-08  0.80850093E-08
  0.68948151E-08  0.56571609E-08  0.43838646E-08  0.30869166E-08  0.17783690E-08
  0.47022608E-09 -0.82566348E-09 -0.20977118E-08 -0.33346933E-08 -0.45258412E-08
 -0.56609393E-08 -0.67304073E-08 -0.77253791E-08 -0.86377743E-08 -0.94603610E-08
 -0.10186811E-07 -0.10811744E-07 -0.11330767E-07 -0.11740499E-07 -0.12038592E-07
 -0.12223736E-07 -0.12295659E-07 -0.12255117E-07 -0.12103874E-07 -0.11844676E-07
 -0.11481209E-07 -0.11018057E-07 -0.10460650E-07 -0.98152042E-08 -0.90886541E-08
 -0.82885833E-08 -0.74231468E-08 -0.65009906E-08 -0.55311676E-08 -0.45230505E-08
 -0.34862435E-08 -0.24304924E-08 -0.13655951E-08 -0.30131212E-09  0.75272085E-09
  0.17870787E-08  0.27926292E-08  0.37606125E-08  0.46827150E-08  0.55511397E-08
  0.63586699E-08  0.70987275E-08  0.77654249E-08  0.83536094E-08  0.88589013E-08
  0.92777237E-08  0.96073253E-08  0.98457956E-08  0.99920714E-08  0.10045937E-07
  0.10008014E-07  0.98797486E-08  0.96633869E-08  0.93619445E-08  0.89791710E-08
  0.85195071E-08  0.79880358E-08  0.73904295E-08  0.67328911E-08  0.60220916E-08
 kinetic energy density (partial)
  0.31618065E+03  0.31601961E+03  0.31553695E+03  0.31473409E+03  0.31361337E+03
  0.31217806E+03  0.31043234E+03  0.30838127E+03  0.30603077E+03  0.30338760E+03
  0.30045931E+03  0.29725422E+03  0.29378138E+03  0.29005050E+03  0.28607194E+03
  0.28185666E+03  0.27741614E+03  0.27276234E+03  0.26790767E+03  0.26286492E+03
  0.25764719E+03  0.25226784E+03  0.24674048E+03  0.24107882E+03  0.23529672E+03
  0.22940807E+03  0.22342674E+03  0.21736657E+03  0.21124126E+03  0.20506439E+03
  0.19884930E+03  0.19260912E+03  0.18635667E+03  0.18010445E+03  0.17386461E+03
  0.16764889E+03  0.16146860E+03  0.15533462E+03  0.14925734E+03  0.14324663E+03
  0.13731189E+03  0.13146194E+03  0.12570508E+03  0.12004905E+03  0.11450102E+03
  0.10906760E+03  0.10375484E+03  0.98568186E+02  0.93512561E+02  0.88592306E+02
  0.83811213E+02  0.79172532E+02  0.74678983E+02  0.70332765E+02  0.66135575E+02
  0.62088623E+02  0.58192647E+02  0.54447934E+02  0.50854341E+02  0.47411311E+02
  0.44117898E+02  0.40972785E+02  0.37974311E+02  0.35120489E+02  0.32409033E+02
  0.29837375E+02  0.27402695E+02  0.25101936E+02  0.22931835E+02  0.20888937E+02
  0.18969621E+02  0.17170122E+02  0.15486551E+02  0.13914912E+02  0.12451127E+02
  0.11091052E+02  0.98304932E+01  0.86652290E+01  0.75910223E+01  0.66036383E+01
  0.56988582E+01  0.48724941E+01  0.41204010E+01  0.34384892E+01  0.28227357E+01
  0.22691942E+01  0.17740042E+01  0.13333998E+01  0.94371717E+00  0.60140120E+00
  0.30301130E+00  0.45226517E-01 -0.17515024E+00 -0.36118871E+00 -0.51582858E+00
 -0.64187737E+00 -0.74200914E+00 -0.81876375E+00 -0.87454667E+00 -0.91162951E+00
 -0.93215095E+00 -0.93811818E+00 -0.93140890E+00 -0.91377359E+00 -0.88683831E+00
 -0.85210772E+00 -0.81096851E+00 -0.76469308E+00 -0.71444342E+00 -0.66127527E+00
 -0.60614240E+00 -0.54990106E+00 -0.49331457E+00 -0.43705797E+00 -0.38172271E+00
 -0.32782142E+00 -0.27579267E+00 -0.22600571E+00 -0.17876517E+00 -0.13431576E+00
 -0.92846772E-01 -0.54496655E-01 -0.19357334E-01  0.12521498E-01  0.41128261E-01
  0.66485504E-01  0.88646078E-01  0.10768947E+00  0.12371831E+00  0.13685505E+00
  0.14723882E+00  0.15502249E+00  0.16036988E+00  0.16345317E+00  0.16445054E+00
  0.16354391E+00  0.16091694E+00  0.15675317E+00  0.15123436E+00  0.14453897E+00
  0.13684084E+00  0.12830800E+00  0.11910171E+00  0.10937551E+00  0.99274586E-01
  0.88935113E-01  0.78483836E-01  0.68037717E-01  0.57703711E-01  0.47578643E-01
  0.37749188E-01  0.28291926E-01  0.19273494E-01  0.10750798E-01  0.27712979E-02
 -0.46266535E-02 -0.11413422E-01 -0.17567657E-01 -0.23075825E-01 -0.27931707E-01
 -0.32135882E-01 -0.35695183E-01 -0.38622148E-01 -0.40934465E-01 -0.42654410E-01
 -0.43808294E-01 -0.44425916E-01 -0.44540024E-01 -0.44185797E-01 -0.43400340E-01
 -0.42222200E-01 -0.40690909E-01 -0.38846548E-01 -0.36729339E-01 -0.34379268E-01
 -0.31835733E-01 -0.29137226E-01 -0.26321042E-01 -0.23423026E-01 -0.20477336E-01
 -0.17516258E-01 -0.14570030E-01 -0.11666709E-01 -0.88320630E-02 -0.60894872E-02
 -0.34599503E-02 -0.96196455E-03  0.13884211E-02  0.35776049E-02  0.55943966E-02
  0.74299626E-02  0.90777536E-02  0.10533417E-01  0.11794698E-01  0.12861321E-01
  0.13734875E-01  0.14418673E-01  0.14917619E-01  0.15238061E-01  0.15387646E-01
  0.15375168E-01  0.15210416E-01  0.14904029E-01  0.14467340E-01  0.13912235E-01
  0.13251012E-01  0.12496240E-01  0.11660631E-01  0.10756915E-01  0.97977215E-02
  0.87954713E-02  0.77622745E-02  0.67098383E-02  0.56493828E-02  0.45915671E-02
  0.35464234E-02  0.25233016E-02  0.15308221E-02  0.57683836E-03 -0.33159188E-03
 -0.11882267E-02 -0.19876519E-02 -0.27252844E-02 -0.33973685E-02 -0.40009654E-02
 -0.45339348E-02 -0.49949118E-02 -0.53832773E-02 -0.56991239E-02 -0.59432167E-02
 -0.61169507E-02 -0.62223052E-02 -0.62617943E-02 -0.62384164E-02 -0.61556017E-02
 -0.60171581E-02 -0.58272173E-02 -0.55901803E-02 -0.53106638E-02 -0.49934466E-02
 -0.46434185E-02 -0.42655297E-02 -0.38647425E-02 -0.34459863E-02 -0.30141134E-02
 -0.25738592E-02 -0.21298049E-02 -0.16863432E-02 -0.12476474E-02 -0.81764463E-03
 -0.39999161E-03  0.19452567E-05  0.38510663E-03  0.74675328E-03  0.10844757E-02
  0.13962002E-02  0.16801921E-02  0.19350553E-02  0.21597289E-02  0.23534815E-02
  0.25159021E-02  0.26468891E-02  0.27466370E-02  0.28156207E-02  0.28545784E-02
  0.28644930E-02  0.28465718E-02  0.28022253E-02  0.27330454E-02  0.26407825E-02
  0.25273226E-02  0.23946641E-02  0.22448946E-02  0.20801680E-02  0.19026818E-02
  0.17146556E-02  0.15183095E-02  0.13158443E-02  0.11094219E-02  0.90114790E-03
  0.69305447E-03  0.48708520E-03  0.28508125E-03  0.88768999E-04 -0.10025078E-03
 -0.28051207E-03 -0.45069130E-03 -0.60961328E-03 -0.75625570E-03 -0.88975201E-03
 -0.10093928E-02 -0.11146256E-02 -0.12050536E-02 -0.12804328E-02 -0.13406676E-02
 -0.13858060E-02 -0.14160334E-02 -0.14316647E-02 -0.14331367E-02 -0.14209992E-02
 -0.13959052E-02 -0.13586012E-02 -0.13099160E-02 -0.12507509E-02 -0.11820678E-02
 -0.11048783E-02 -0.10202327E-02 -0.92920906E-03 -0.83290186E-03 -0.73241184E-03
 -0.62883559E-03 -0.52325581E-03 -0.41673203E-03 -0.31029183E-03 -0.20492284E-03
 -0.10156519E-03 -0.11049176E-05  0.95632116E-04  0.18788538E-03  0.27496411E-03
  0.35625097E-03  0.43120487E-03  0.49936303E-03  0.56034226E-03  0.61383947E-03
  0.65963143E-03  0.69757389E-03  0.72759994E-03  0.74971776E-03  0.76400787E-03
  0.77061967E-03  0.76976762E-03  0.76172697E-03  0.74682899E-03  0.72545599E-03
  0.69803604E-03  0.66503739E-03  0.62696284E-03  0.58434392E-03  0.53773505E-03
  0.48770775E-03  0.43484477E-03  0.37973449E-03  0.32296534E-03  0.26512050E-03
  0.20677275E-03  0.14847969E-03  0.90779152E-04  0.34185076E-04 -0.20816376E-04
 -0.73770257E-04 -0.12425589E-03 -0.17188949E-03 -0.21632644E-03 -0.25726302E-03
 -0.29443782E-03 -0.32763265E-03 -0.35667309E-03 -0.38142858E-03 -0.40181214E-03
 -0.41777972E-03 -0.42932913E-03 -0.43649872E-03 -0.43936564E-03 -0.43804391E-03
 -0.43268212E-03 -0.42346100E-03 -0.41059068E-03 -0.39430789E-03 -0.37487286E-03
 -0.35256629E-03 -0.32768608E-03 -0.30054411E-03 -0.27146293E-03 -0.24077255E-03
 -0.20880713E-03 -0.17590191E-03 -0.14239007E-03 -0.10859980E-03 -0.74851496E-04
 -0.41455084E-04 -0.87075516E-05  0.23109337E-04  0.53731119E-04  0.82912486E-04
  0.11042891E-03  0.13607803E-03  0.15968080E-03  0.18108239E-03  0.20015284E-03
  0.21678748E-03  0.23090707E-03  0.24245780E-03  0.25141094E-03  0.25776237E-03
  0.26153186E-03  0.26276216E-03  0.26151795E-03  0.25788454E-03  0.25196654E-03
  0.24388627E-03  0.23378217E-03  0.22180705E-03  0.20812626E-03  0.19291585E-03
  0.17636064E-03  0.15865230E-03  0.13998738E-03  0.12056543E-03  0.10058709E-03
  0.80252221E-04  0.59758128E-04  0.39297862E-04  0.19058580E-04 -0.77997501E-06
 -0.20046889E-04 -0.38581371E-04 -0.56233916E-04 -0.72867336E-04 -0.88357654E-04
 -0.10259484E-03 -0.11548344E-03 -0.12694296E-03 -0.13690826E-03 -0.14532965E-03
 -0.15217290E-03 -0.15741917E-03 -0.16106469E-03 -0.16312039E-03 -0.16361143E-03
 -0.16257651E-03 -0.16006718E-03 -0.15614703E-03 -0.15089074E-03 -0.14438315E-03
 -0.13671816E-03 -0.12799765E-03 -0.11833037E-03 -0.10783071E-03 -0.96617556E-04
 -0.84813078E-04 -0.72541523E-04 -0.59928046E-04 -0.47097548E-04 -0.34173552E-04
 -0.21277123E-04 -0.85258348E-05  0.39671979E-05  0.16094227E-04  0.27753703E-04
  0.38851030E-04  0.49299235E-04  0.59019559E-04  0.67941949E-04  0.76005461E-04
  0.83158581E-04  0.89359432E-04  0.94575911E-04  0.98785719E-04  0.10197631E-03
  0.10414474E-03  0.10529748E-03  0.10545005E-03  0.10462672E-03  0.10285999E-03
  0.10019016E-03  0.96664685E-04  0.92337639E-04  0.87268999E-04  0.81523978E-04
  0.75172294E-04  0.68287429E-04  0.60945862E-04  0.53226305E-04  0.45208935E-04
  0.36974626E-04  0.28604204E-04  0.20177715E-04  0.11773718E-04  0.34686129E-05
 -0.46639975E-05 -0.12553906E-04 -0.20134850E-04 -0.27345017E-04 -0.34127492E-04
 -0.40430652E-04 -0.46208505E-04 -0.51420966E-04 -0.56034079E-04 -0.60020167E-04
 -0.63357941E-04 -0.66032524E-04 -0.68035443E-04 -0.69364538E-04 -0.70023841E-04
 -0.70023378E-04 -0.69378944E-04 -0.68111816E-04 -0.66248428E-04 -0.63820013E-04
 -0.60862199E-04 -0.57414588E-04 -0.53520300E-04 -0.49225496E-04 -0.44578894E-04
 -0.39631264E-04 -0.34434919E-04 -0.29043206E-04 -0.23510002E-04 -0.17889207E-04
 -0.12234262E-04 -0.65976715E-05 -0.10305518E-05  0.44177992E-05  0.97003070E-05
  0.14772495E-04  0.19592825E-04  0.24123011E-04  0.28328283E-04  0.32177627E-04
  0.35643977E-04  0.38704371E-04  0.41340063E-04  0.43536597E-04  0.45283843E-04
  0.46575986E-04  0.47411484E-04  0.47792981E-04  0.47727196E-04  0.47224761E-04
  0.46300044E-04  0.44970931E-04  0.43258587E-04  0.41187187E-04  0.38783637E-04
  0.36077263E-04  0.33099495E-04  0.29883534E-04  0.26464013E-04  0.22876651E-04
  0.19157907E-04  0.15344633E-04  0.11473730E-04  0.75818153E-05  0.37048956E-05
 -0.12194474E-06 -0.38648418E-05 -0.74914318E-05 -0.10971111E-04 -0.14275276E-04
 -0.17377538E-04 -0.20253914E-04 -0.22882990E-04 -0.25246066E-04 -0.27327259E-04
 -0.29113589E-04 -0.30595038E-04 -0.31764572E-04 -0.32618143E-04 -0.33154663E-04
 -0.33375949E-04 -0.33286645E-04 -0.32894122E-04 -0.32208351E-04 -0.31241758E-04
 -0.30009064E-04 -0.28527094E-04 -0.26814592E-04 -0.24892001E-04 -0.22781249E-04
 -0.20505515E-04 -0.18088997E-04 -0.15556668E-04 -0.12934036E-04 -0.10246901E-04
 -0.75211163E-05 -0.47823519E-05 -0.20558670E-05  0.63371058E-06  0.32625944E-05
  0.58080374E-05  0.82485167E-05  0.10563903E-04  0.12735615E-04  0.14746756E-04
  0.16582231E-04  0.18228849E-04  0.19675403E-04  0.20912729E-04  0.21933751E-04
  0.22733503E-04  0.23309128E-04  0.23659863E-04  0.23787005E-04  0.23693857E-04
  0.23385658E-04  0.22869498E-04  0.22154213E-04  0.21250276E-04  0.20169664E-04
  0.18925724E-04  0.17533022E-04  0.16007189E-04  0.14364759E-04  0.12622996E-04
  0.10799732E-04  0.89131881E-05  0.69818023E-05  0.50240615E-05  0.30583303E-05
  0.11026886E-05 -0.82522741E-06 -0.27083759E-05 -0.45304520E-05 -0.62760216E-05
 -0.79306439E-05 -0.94809831E-05 -0.10914908E-04 -0.12221577E-04 -0.13391515E-04
 -0.14416670E-04 -0.15290458E-04 -0.16007799E-04 -0.16565128E-04 -0.16960404E-04
 -0.17193097E-04 -0.17264163E-04 -0.17176009E-04 -0.16932443E-04 -0.16538612E-04
 -0.16000933E-04 -0.15327008E-04 -0.14525534E-04 -0.13606202E-04 -0.12579595E-04
 -0.11457071E-04 -0.10250647E-04 -0.89728783E-05 -0.76367349E-05 -0.62554759E-05
 -0.48425240E-05 -0.34113413E-05 -0.19753062E-05 -0.54759433E-06  0.85893743E-06
  0.22318613E-05  0.35592831E-05  0.48299406E-05  0.60332934E-05  0.71596053E-05
  0.82000178E-05  0.91466143E-05  0.99924745E-05  0.10731719E-04  0.11359544E-04
  0.11872243E-04  0.12267225E-04  0.12543013E-04  0.12699241E-04  0.12736633E-04
  0.12656982E-04  0.12463110E-04  0.12158827E-04  0.11748878E-04  0.11238880E-04
  0.10635263E-04  0.99451878E-05  0.91764770E-05  0.83375262E-05  0.74372207E-05
  0.64848454E-05  0.54899941E-05  0.44624766E-05  0.34122268E-05  0.23492096E-05
  0.12833311E-05  0.22434929E-06 -0.81821157E-06 -0.18351430E-05 -0.28176302E-05
 -0.37573251E-05 -0.46464136E-05 -0.54776773E-05 -0.62445482E-05 -0.69411571E-05
 -0.75623744E-05 -0.81038441E-05 -0.85620096E-05 -0.89341319E-05 -0.92183008E-05
 -0.94134376E-05 -0.95192905E-05 -0.95364230E-05 -0.94661944E-05 -0.93107343E-05
 -0.90729098E-05 -0.87562871E-05 -0.83650872E-05 -0.79041367E-05 -0.73788134E-05
 -0.67949889E-05 -0.61589665E-05 -0.54774168E-05 -0.47573116E-05 -0.40058550E-05
 -0.32304150E-05 -0.24384531E-05 -0.16374561E-05 -0.83486718E-06 -0.38019579E-07
  0.74592811E-06  0.15100538E-05  0.22477308E-05  0.29526825E-05  0.36190340E-05
  0.42413581E-05  0.48147173E-05  0.53347003E-05  0.57974534E-05  0.61997061E-05
  0.65387908E-05  0.68126577E-05  0.70198824E-05  0.71596693E-05  0.72318479E-05
  0.72368644E-05  0.71757676E-05  0.70501893E-05  0.68623204E-05  0.66148814E-05
  0.63110897E-05  0.59546223E-05  0.55495746E-05  0.51004171E-05  0.46119484E-05
  0.40892467E-05  0.35376193E-05  0.29625508E-05  0.23696503E-05  0.17645992E-05
  0.11530978E-05  0.54081420E-06 -0.66667110E-07 -0.66389428E-06 -0.12455954E-05
 -0.18067233E-05 -0.23424978E-05 -0.28484448E-05 -0.33204317E-05 -0.37546996E-05
 -0.41478916E-05 -0.44970764E-05 -0.47997686E-05 -0.50539439E-05 -0.52580502E-05
 -0.54110144E-05 -0.55122444E-05 -0.55616272E-05 -0.55595221E-05 -0.55067501E-05
 -0.54045797E-05 -0.52547077E-05 -0.50592379E-05 -0.48206552E-05 -0.45417974E-05
 -0.42258240E-05 -0.38761825E-05 -0.34965730E-05 -0.30909104E-05 -0.26632859E-05
 -0.22179271E-05 -0.17591578E-05 -0.12913569E-05 -0.81891857E-06 -0.34621164E-06
  0.12245932E-06  0.58289204E-06  0.10310231E-05  0.14629626E-05  0.18750266E-05
  0.22637677E-05  0.26260023E-05  0.29588359E-05  0.32596842E-05  0.35262925E-05
  0.37567511E-05  0.39495069E-05  0.41033725E-05  0.42175314E-05  0.42915398E-05
  0.43253249E-05  0.43191801E-05  0.42737570E-05  0.41900539E-05  0.40694018E-05
  0.39134472E-05  0.37241324E-05  0.35036740E-05  0.32545382E-05  0.29794151E-05
  0.26811907E-05  0.23629183E-05  0.20277880E-05  0.16790958E-05  0.13202126E-05
  0.95455190E-06  0.58553885E-06  0.21657874E-06 -0.14897350E-06 -0.50784290E-06
 -0.85686302E-06 -0.11930030E-05 -0.15133930E-05 -0.18153479E-05 -0.20963890E-05
 -0.23542634E-05 -0.25869610E-05 -0.27927295E-05 -0.29700862E-05 -0.31178279E-05
 -0.32350372E-05 -0.33210875E-05 -0.33756436E-05 -0.33986612E-05 -0.33903830E-05
 -0.33513320E-05 -0.32823031E-05 -0.31843521E-05 -0.30587820E-05 -0.29071280E-05
 -0.27311401E-05 -0.25327645E-05 -0.23141225E-05 -0.20774897E-05 -0.18252724E-05
 -0.15599845E-05 -0.12842227E-05 -0.10006423E-05 -0.71193211E-06 -0.42078952E-06
 -0.12989607E-06  0.15810666E-06  0.44064042E-06  0.71521272E-06  0.97943826E-06
  0.12310590E-05  0.14679629E-05  0.16882009E-05  0.18900023E-05  0.20717886E-05
  0.22321846E-05  0.23700287E-05  0.24843797E-05  0.25745229E-05  0.26399731E-05
  0.26804761E-05  0.26960073E-05  0.26867693E-05  0.26531867E-05  0.25958992E-05
  0.25157527E-05  0.24137890E-05  0.22912339E-05  0.21494829E-05  0.19900869E-05
  0.18147357E-05  0.16252407E-05  0.14235172E-05  0.12115653E-05  0.99145074E-06
  0.76528530E-06  0.53520705E-06  0.30336059E-06  0.71877567E-07 -0.15714249E-06
 -0.38165074E-06 -0.59966691E-06 -0.80929631E-06 -0.10087459E-05 -0.11963390E-05
 -0.13705291E-05 -0.15299122E-05 -0.16732372E-05 -0.17994156E-05 -0.19075291E-05
 -0.19968355E-05 -0.20667732E-05 -0.21169640E-05 -0.21472137E-05 -0.21575117E-05
 -0.21480287E-05 -0.21191127E-05 -0.20712832E-05 -0.20052247E-05 -0.19217781E-05
 -0.18219308E-05 -0.17068062E-05 -0.15776516E-05 -0.14358251E-05 -0.12827819E-05
 -0.11200602E-05 -0.94926557E-06 -0.77205602E-06 -0.59012603E-06 -0.40519082E-06
 -0.21897051E-06 -0.33174453E-07  0.15051405E-06  0.33045274E-06  0.50505467E-06
  0.67280192E-06  0.83225845E-06  0.98208202E-06  0.11210352E-05  0.12479950E-05
  0.13619620E-05  0.14620675E-05  0.15475796E-05  0.16179084E-05  0.16726093E-05
  0.17113852E-05  0.17340875E-05  0.17407150E-05  0.17314127E-05  0.17064683E-05
  0.16663076E-05  0.16114891E-05  0.15426974E-05  0.14607349E-05  0.13665136E-05
  0.12610450E-05  0.11454300E-05  0.10208475E-05  0.88854302E-06  0.74981624E-06
  0.60600889E-06  0.45849183E-06  0.30865235E-06  0.15788138E-06  0.75608231E-08
 -0.14094884E-06 -0.28632059E-06 -0.42727251E-06 -0.56257882E-06 -0.69108026E-06
 -0.81169381E-06 -0.92342149E-06 -0.10253584E-05 -0.11166998E-05 -0.11967469E-05
 -0.12649123E-05 -0.13207236E-05 -0.13638263E-05 -0.13939857E-05 -0.14110874E-05
 -0.14151369E-05 -0.14062581E-05 -0.13846907E-05 -0.13507865E-05 -0.13050051E-05
 -0.12479080E-05 -0.11801527E-05 -0.11024853E-05 -0.10157327E-05 -0.92079413E-06
 -0.81863208E-06 -0.71026293E-06 -0.59674695E-06 -0.47917824E-06 -0.35867435E-06
 -0.23636589E-06 -0.11338613E-06  0.91392818E-08  0.13010248E-06  0.24842316E-06
  0.36305805E-06  0.47300992E-06  0.57733604E-06  0.67515610E-06  0.76565941E-06
  0.84811142E-06  0.92185946E-06  0.98633766E-06  0.10410711E-05  0.10856788E-05
  0.11198764E-05  0.11434773E-05  0.11563934E-05  0.11586345E-05  0.11503071E-05
  0.11316124E-05  0.11028433E-05  0.10643807E-05  0.10166887E-05  0.96030997E-06
  0.89585932E-06  0.82401766E-06  0.74552492E-06  0.66117263E-06  0.57179618E-06
 atomic pseudo charge-density
  0.60000000E+01  0.59866607E+01  0.59468313E+01  0.58810730E+01  0.57903027E+01
  0.56757674E+01  0.55390090E+01  0.53818231E+01  0.52062125E+01  0.50143371E+01
  0.48084639E+01  0.45909168E+01  0.43640303E+01  0.41301058E+01  0.38913738E+01
  0.36499612E+01  0.34078646E+01  0.31669300E+01  0.29288375E+01  0.26950927E+01
  0.24670215E+01  0.22457705E+01  0.20323097E+01  0.18274396E+01  0.16317994E+01
  0.14458775E+01  0.12700231E+01  0.11044583E+01  0.94929089E+00  0.80452673E+00
  0.67008224E+00  0.54579618E+00  0.43144090E+00  0.32673291E+00  0.23134264E+00
  0.14490341E+00  0.67019572E-01 -0.27260978E-02 -0.64765886E-01 -0.11954129E+00
 -0.16749793E+00 -0.20908108E+00 -0.24473184E+00 -0.27488388E+00 -0.29996067E+00
 -0.32037323E+00 -0.33651824E+00 -0.34877663E+00 -0.35751238E+00 -0.36307179E+00
 -0.36578283E+00 -0.36595492E+00 -0.36387876E+00 -0.35982639E+00 -0.35405148E+00
 -0.34678961E+00 -0.33825875E+00 -0.32865979E+00 -0.31817719E+00 -0.30697960E+00
 -0.29522061E+00 -0.28303946E+00 -0.27056181E+00 -0.25790051E+00 -0.24515634E+00
 -0.23241881E+00 -0.21976688E+00 -0.20726973E+00 -0.19498740E+00 -0.18297155E+00
 -0.17126612E+00 -0.15990789E+00 -0.14892719E+00 -0.13834840E+00 -0.12819052E+00
 -0.11846768E+00 -0.10918964E+00 -0.10036224E+00 -0.91987792E-01 -0.84065518E-01
 -0.76591899E-01 -0.69561017E-01 -0.62964871E-01 -0.56793672E-01 -0.51036108E-01
 -0.45679588E-01 -0.40710471E-01 -0.36114267E-01 -0.31875823E-01 -0.27979493E-01
 -0.24409291E-01 -0.21149022E-01 -0.18182411E-01 -0.15493207E-01 -0.13065279E-01
 -0.10882702E-01 -0.89298327E-02 -0.71913679E-02 -0.56524043E-02 -0.42984821E-02
 -0.31156244E-02 -0.20903688E-02 -0.12097922E-02 -0.46153001E-03  0.16620970E-03
  0.68463743E-03  0.11043773E-02  0.14354665E-02  0.16873575E-02  0.18689242E-02
  0.19884702E-02  0.20537395E-02  0.20719300E-02  0.20497074E-02  0.19932222E-02
  0.19081267E-02  0.17995941E-02  0.16723373E-02  0.15306297E-02  0.13783252E-02
  0.12188794E-02  0.10553705E-02  0.89052089E-03  0.72671742E-03  0.56603296E-03
  0.41024673E-03  0.26086463E-03  0.11913908E-03 -0.13911673E-04 -0.13748468E-03
 -0.25097412E-03 -0.35395372E-03 -0.44615986E-03 -0.52747532E-03 -0.59791384E-03
 -0.65760532E-03 -0.70678182E-03 -0.74576430E-03 -0.77495012E-03 -0.79480126E-03
 -0.80583333E-03 -0.80860530E-03 -0.80370994E-03 -0.79176504E-03 -0.77340525E-03
 -0.74927466E-03 -0.72002000E-03 -0.68628453E-03 -0.64870254E-03 -0.60789439E-03
 -0.56446220E-03 -0.51898605E-03 -0.47202069E-03 -0.42409280E-03 -0.37569864E-03
 -0.32730223E-03 -0.27933385E-03 -0.23218904E-03 -0.18622788E-03 -0.14177462E-03
 -0.99117644E-04 -0.58509729E-04 -0.20168515E-04  0.15722741E-04  0.49014228E-04
  0.79588439E-04  0.10735887E-03  0.13226858E-03  0.15428861E-03  0.17341631E-03
  0.18967363E-03  0.20310520E-03  0.21377656E-03  0.22177221E-03  0.22719367E-03
  0.23015764E-03  0.23079398E-03  0.22924393E-03  0.22565820E-03  0.22019518E-03
  0.21301922E-03  0.20429892E-03  0.19420551E-03  0.18291138E-03  0.17058857E-03
  0.15740745E-03  0.14353545E-03  0.12913589E-03  0.11436694E-03  0.99380637E-04
  0.84322021E-04  0.69328392E-04  0.54528645E-04  0.40042719E-04  0.25981138E-04
  0.12444652E-04 -0.47602522E-06 -0.12700392E-04 -0.24158247E-04 -0.34789691E-04
 -0.44545051E-04 -0.53384736E-04 -0.61279012E-04 -0.68207725E-04 -0.74159957E-04
 -0.79133632E-04 -0.83135078E-04 -0.86178535E-04 -0.88285643E-04 -0.89484887E-04
 -0.89811018E-04 -0.89304462E-04 -0.88010703E-04 -0.85979668E-04 -0.83265098E-04
 -0.79923925E-04 -0.76015656E-04 -0.71601757E-04 -0.66745063E-04 -0.61509194E-04
 -0.55958002E-04 -0.50155030E-04 -0.44163012E-04 -0.38043393E-04 -0.31855880E-04
 -0.25658036E-04 -0.19504899E-04 -0.13448644E-04 -0.75382824E-05 -0.18193958E-05
  0.36660875E-05  0.88800782E-05  0.13788474E-04  0.18361270E-04  0.22572627E-04
  0.26400913E-04  0.29828698E-04  0.32842724E-04  0.35433839E-04  0.37596902E-04
  0.39330657E-04  0.40637587E-04  0.41523734E-04  0.41998510E-04  0.42074475E-04
  0.41767112E-04  0.41094573E-04  0.40077426E-04  0.38738386E-04  0.37102037E-04
  0.35194559E-04  0.33043437E-04  0.30677187E-04  0.28125076E-04  0.25416843E-04
  0.22582433E-04  0.19651740E-04  0.16654351E-04  0.13619313E-04  0.10574907E-04
  0.75484360E-05  0.45660319E-05  0.16524776E-05 -0.11689537E-05 -0.38766406E-05
 -0.64507368E-05 -0.88732753E-05 -0.11128254E-04 -0.13201699E-04 -0.15081717E-04
 -0.16758516E-04 -0.18224420E-04 -0.19473857E-04 -0.20503335E-04 -0.21311400E-04
 -0.21898577E-04 -0.22267298E-04 -0.22421816E-04 -0.22368108E-04 -0.22113763E-04
 -0.21667867E-04 -0.21040869E-04 -0.20244453E-04 -0.19291390E-04 -0.18195398E-04
 -0.16970991E-04 -0.15633325E-04 -0.14198055E-04 -0.12681176E-04 -0.11098877E-04
 -0.94673986E-05 -0.78028862E-05 -0.61212578E-05 -0.44380721E-05 -0.27684063E-05
 -0.11267404E-05  0.47314848E-06  0.20182839E-05  0.34965771E-05  0.48969044E-05
  0.62091735E-05  0.74243796E-05  0.85346503E-05  0.95332792E-05  0.10414749E-04
  0.11174743E-04  0.11810148E-04  0.12319043E-04  0.12700683E-04  0.12955469E-04
  0.13084910E-04  0.13091581E-04  0.12979064E-04  0.12751890E-04  0.12415474E-04
  0.11976038E-04  0.11440536E-04  0.10816572E-04  0.10112315E-04  0.93364084E-05
  0.84978868E-05  0.76060808E-05  0.66705291E-05  0.57008887E-05  0.47068470E-05
  0.36980360E-05  0.26839493E-05  0.16738627E-05  0.67675845E-06 -0.29874504E-06
 -0.12444595E-05 -0.21526867E-05 -0.30162733E-05 -0.38286585E-05 -0.45839162E-05
 -0.52767900E-05 -0.59027216E-05 -0.64578724E-05 -0.69391382E-05 -0.73441571E-05
 -0.76713107E-05 -0.79197189E-05 -0.80892286E-05 -0.81803953E-05 -0.81944606E-05
 -0.81333228E-05 -0.79995036E-05 -0.77961093E-05 -0.75267886E-05 -0.71956861E-05
 -0.68073933E-05 -0.63668963E-05 -0.58795215E-05 -0.53508801E-05 -0.47868109E-05
 -0.41933227E-05 -0.35765369E-05 -0.29426301E-05 -0.22977781E-05 -0.16481007E-05
 -0.99960906E-06 -0.35815451E-06  0.27061936E-06  0.88132194E-06  0.14688574E-05
  0.20284631E-05  0.25557436E-05  0.30467012E-05  0.34977621E-05  0.39057981E-05
  0.42681435E-05  0.45826083E-05  0.48474864E-05  0.50615588E-05  0.52240940E-05
  0.53348421E-05  0.53940263E-05  0.54023296E-05  0.53608779E-05  0.52712199E-05
  0.51353032E-05  0.49554478E-05  0.47343163E-05  0.44748829E-05  0.41803990E-05
  0.38543579E-05  0.35004581E-05  0.31225653E-05  0.27246740E-05  0.23108687E-05
  0.18852853E-05  0.14520727E-05  0.10153552E-05  0.57919619E-06  0.14756291E-06
 -0.27570718E-06 -0.68693793E-06 -0.10826440E-05 -0.14595582E-05 -0.18146557E-05
 -0.21451763E-05 -0.24486434E-05 -0.27228802E-05 -0.29660225E-05 -0.31765292E-05
 -0.33531888E-05 -0.34951233E-05 -0.36017893E-05 -0.36729753E-05 -0.37087965E-05
 -0.37096873E-05 -0.36763900E-05 -0.36099420E-05 -0.35116600E-05 -0.33831222E-05
 -0.32261487E-05 -0.30427796E-05 -0.28352524E-05 -0.26059777E-05 -0.23575131E-05
 -0.20925378E-05 -0.18138254E-05 -0.15242171E-05 -0.12265943E-05 -0.92385187E-06
 -0.61887178E-06 -0.31449700E-06 -0.13506672E-07  0.28140778E-06  0.56766528E-06
  0.84281625E-06  0.11045622E-05  0.13507735E-05  0.15795052E-05  0.17890114E-05
  0.19777564E-05  0.21444252E-05  0.22879305E-05  0.24074183E-05  0.25022710E-05
  0.25721084E-05  0.26167864E-05  0.26363935E-05  0.26312458E-05  0.26018795E-05
  0.25490417E-05  0.24736794E-05  0.23769274E-05  0.22600936E-05  0.21246448E-05
  0.19721892E-05  0.18044599E-05  0.16232961E-05  0.14306247E-05  0.12284410E-05
  0.10187892E-05  0.80374261E-06  0.58538464E-06  0.36578930E-06  0.14700260E-06
 -0.68975656E-07 -0.28020916E-06 -0.48484161E-06 -0.68111216E-06 -0.86736967E-06
 -0.10420857E-05 -0.12038664E-05 -0.13514624E-05 -0.14837777E-05 -0.15998769E-05
 -0.16989908E-05 -0.17805202E-05 -0.18440385E-05 -0.18892921E-05 -0.19162001E-05
 -0.19248512E-05 -0.19155003E-05 -0.18885632E-05 -0.18446094E-05 -0.17843547E-05
 -0.17086514E-05 -0.16184787E-05 -0.15149311E-05 -0.13992061E-05 -0.12725920E-05
 -0.11364540E-05 -0.99222040E-06 -0.84136857E-06 -0.68541048E-06 -0.52587816E-06
 -0.36430942E-06 -0.20223356E-06 -0.41157596E-07  0.11744724E-06  0.27215831E-06
  0.42161379E-06  0.56452407E-06  0.69968236E-06  0.82597429E-06  0.94238657E-06
  0.10480145E-05  0.11420684E-05  0.12238788E-05  0.12929009E-05  0.13487169E-05
  0.13910378E-05  0.14197043E-05  0.14346854E-05  0.14360770E-05  0.14240987E-05
  0.13990894E-05  0.13615028E-05  0.13119007E-05  0.12509463E-05  0.11793963E-05
  0.10980925E-05  0.10079526E-05  0.90996024E-06  0.80515535E-06  0.69462316E-06
  0.57948374E-06  0.46088106E-06  0.33997203E-06  0.21791570E-06  0.95862513E-07
 -0.25056126E-07 -0.14373794E-06 -0.25911947E-06 -0.37018521E-06 -0.47597620E-06
 -0.57559789E-06 -0.66822740E-06 -0.75311986E-06 -0.82961407E-06 -0.89713719E-06
 -0.95520863E-06 -0.10034429E-05 -0.10415519E-05 -0.10693456E-05 -0.10867324E-05
 -0.10937188E-05 -0.10904070E-05 -0.10769930E-05 -0.10537631E-05 -0.10210900E-05
 -0.97942773E-06 -0.92930629E-06 -0.87132562E-06 -0.80614889E-06 -0.73449542E-06
 -0.65713314E-06 -0.57487073E-06 -0.48854957E-06 -0.39903539E-06 -0.30720997E-06
 -0.21396268E-06 -0.12018220E-06 -0.26748302E-07  0.65476124E-07  0.15565279E-06
  0.24297538E-06  0.32667647E-06  0.40603408E-06  0.48037757E-06  0.54909314E-06
  0.61162853E-06  0.66749729E-06  0.71628217E-06  0.75763802E-06  0.79129380E-06
  0.81705402E-06  0.83479937E-06  0.84448670E-06  0.84614823E-06  0.83989015E-06
  0.82589052E-06  0.80439653E-06  0.77572117E-06  0.74023939E-06  0.69838365E-06
  0.65063910E-06  0.59753829E-06  0.53965553E-06  0.47760099E-06  0.41201447E-06
  0.34355906E-06  0.27291468E-06  0.20077148E-06  0.12782337E-06  0.54761493E-07
 -0.17732142E-07 -0.88990810E-07 -0.15836904E-06 -0.22524830E-06 -0.28904229E-06
 -0.34920194E-06 -0.40521998E-06 -0.45663495E-06 -0.50303491E-06 -0.54406047E-06
 -0.57940740E-06 -0.60882866E-06 -0.63213581E-06 -0.64920000E-06 -0.65995223E-06
 -0.66438320E-06 -0.66254248E-06 -0.65453726E-06 -0.64053049E-06 -0.62073863E-06
 -0.59542883E-06 -0.56491574E-06 -0.52955795E-06 -0.48975402E-06 -0.44593820E-06
 -0.39857593E-06 -0.34815906E-06 -0.29520092E-06 -0.24023125E-06 -0.18379107E-06
 -0.12642746E-06 -0.68688463E-07 -0.11117910E-07  0.45749520E-07  0.10139316E-06
  0.15531098E-06  0.20702400E-06  0.25608043E-06  0.30205945E-06  0.34457475E-06
  0.38327759E-06  0.41785954E-06  0.44805479E-06  0.47364205E-06  0.49444597E-06
  0.51033816E-06  0.52123772E-06  0.52711137E-06  0.52797307E-06  0.52388331E-06
  0.51494784E-06  0.50131614E-06  0.48317938E-06  0.46076813E-06  0.43434965E-06
  0.40422491E-06  0.37072538E-06  0.33420946E-06  0.29505886E-06  0.25367470E-06
  0.21047354E-06  0.16588327E-06  0.12033901E-06  0.74278928E-07  0.28140182E-07
 -0.17645186E-07 -0.62654178E-07 -0.10647666E-06 -0.14871899E-06 -0.18900751E-06
 -0.22699169E-06 -0.26234715E-06 -0.29477829E-06 -0.32402068E-06 -0.34984311E-06
 -0.37204929E-06 -0.39047926E-06 -0.40501035E-06 -0.41555788E-06 -0.42207543E-06
 -0.42455476E-06 -0.42302545E-06 -0.41755404E-06 -0.40824301E-06 -0.39522933E-06
 -0.37868274E-06 -0.35880374E-06 -0.33582133E-06 -0.30999052E-06 -0.28158961E-06
 -0.25091729E-06 -0.21828961E-06 -0.18403683E-06 -0.14850012E-06 -0.11202827E-06
 -0.74974337E-07 -0.37692301E-07 -0.53375697E-09  0.36155333E-07  0.72037790E-07
  0.10678825E-06  0.14009605E-06  0.17166794E-06  0.20123056E-06  0.22853281E-06
  0.25334784E-06  0.27547489E-06  0.29474083E-06  0.31100143E-06  0.32414234E-06
  0.33407979E-06  0.34076096E-06  0.34416412E-06  0.34429843E-06  0.34120347E-06
  0.33494849E-06  0.32563142E-06  0.31337754E-06  0.29833805E-06  0.28068829E-06
  0.26062581E-06  0.23836827E-06  0.21415114E-06  0.18822532E-06  0.16085457E-06
  0.13231290E-06  0.10288190E-06  0.72848039E-07  0.42499872E-07  0.12125379E-07
 -0.17990740E-07 -0.47569679E-07 -0.76341054E-07 -0.10404533E-06 -0.13043609E-06
 -0.15528221E-06 -0.17836980E-06 -0.19950401E-06 -0.21851062E-06 -0.23523739E-06
 -0.24955525E-06 -0.26135921E-06 -0.27056905E-06 -0.27712977E-06 -0.28101180E-06
 -0.28221098E-06 -0.28074829E-06 -0.27666935E-06 -0.27004369E-06 -0.26096385E-06
 -0.24954419E-06 -0.23591962E-06 -0.22024403E-06 -0.20268870E-06 -0.18344044E-06
 -0.16269967E-06 -0.14067841E-06 -0.11759814E-06 -0.93687620E-07 -0.69180696E-07
 -0.44314019E-07 -0.19324819E-07  0.55513190E-08  0.30082636E-07  0.54043321E-07
  0.77215552E-07  0.99391435E-07  0.12037483E-06  0.13998304E-06  0.15804840E-06
  0.17441958E-06  0.18896293E-06  0.20156341E-06  0.21212553E-06  0.22057396E-06
  0.22685404E-06  0.23093203E-06  0.23279519E-06  0.23245167E-06  0.22993015E-06
  0.22527939E-06  0.21856751E-06  0.20988115E-06  0.19932442E-06  0.18701774E-06
  0.17309656E-06  0.15770987E-06  0.14101868E-06  0.12319437E-06  0.10441699E-06
  0.84873451E-07  0.64755700E-07  0.44258891E-07  0.23579509E-07  0.29135155E-08
 -0.17545470E-07 -0.37607958E-07 -0.57090316E-07 -0.75816415E-07 -0.93619197E-07
 -0.11034213E-06 -0.12584056E-06 -0.13998293E-06 -0.15265184E-06 -0.16374504E-06
 -0.17317615E-06 -0.18087535E-06 -0.18678981E-06 -0.19088401E-06 -0.19313987E-06
 -0.19355673E-06 -0.19215119E-06 -0.18895669E-06 -0.18402310E-06 -0.17741600E-06
 -0.16921594E-06 -0.15951747E-06 -0.14842818E-06 -0.13606745E-06 -0.12256528E-06
 -0.10806094E-06 -0.92701530E-07 -0.76640554E-07 -0.60036403E-07 -0.43050813E-07
 -0.25847322E-07 -0.85897160E-08  0.85595063E-08  0.25440639E-07  0.41898235E-07
  0.57782512E-07  0.72950696E-07  0.87268277E-07  0.10061018E-06  0.11286184E-06
  0.12392015E-06  0.13369430E-06  0.14210651E-06  0.14909259E-06  0.15460244E-06
  0.15860031E-06  0.16106502E-06  0.16198997E-06  0.16138310E-06  0.15926659E-06
  0.15567653E-06  0.15066246E-06  0.14428671E-06  0.13662372E-06  0.12775919E-06
  0.11778917E-06  0.10681904E-06  0.94962444E-07  0.82340104E-07  0.69078642E-07
  0.55309323E-07  0.41166774E-07  0.26787691E-07  0.12309535E-07 -0.21307623E-08
 -0.16398074E-07 -0.30360327E-07 -0.43889705E-07 -0.56863799E-07 -0.69166698E-07
 -0.80690008E-07 -0.91333784E-07 -0.10100738E-06 -0.10963019E-06 -0.11713233E-06
 -0.12345512E-06 -0.12855159E-06 -0.13238674E-06 -0.13493776E-06 -0.13619412E-06
 -0.13615756E-06 -0.13484188E-06 -0.13227278E-06 -0.12848741E-06 -0.12353396E-06
 -0.11747106E-06 -0.11036713E-06 -0.10229965E-06 -0.93354349E-07 -0.83624270E-07
 -0.73208872E-07 -0.62213008E-07 -0.50745895E-07 -0.38920043E-07 -0.26850164E-07
 -0.14652085E-07 -0.24416384E-08  0.96664127E-08  0.21559444E-07  0.33128003E-07
  0.44266799E-07  0.54875651E-07  0.64860370E-07  0.74133584E-07  0.82615486E-07
  0.90234504E-07  0.96927886E-07  0.10264220E-06  0.10733375E-06  0.11096887E-06
  0.11352413E-06  0.11498650E-06  0.11535330E-06  0.11463218E-06  0.11284090E-06
  0.11000708E-06  0.10616787E-06  0.10136944E-06  0.95666501E-07  0.89121718E-07
  0.81805008E-07  0.73792831E-07  0.65167403E-07  0.56015870E-07  0.46429441E-07
  0.36502490E-07  0.26331646E-07  0.16014855E-07  0.56504587E-08 -0.46637376E-08
 -0.14831374E-07 -0.24758426E-07 -0.34354062E-07 -0.43531461E-07 -0.52208592E-07
 -0.60308928E-07 -0.67762118E-07 -0.74504575E-07 -0.80480013E-07 -0.85639900E-07
 -0.89943834E-07 -0.93359845E-07 -0.95864608E-07 -0.97443581E-07 -0.98091049E-07
 -0.97810095E-07 -0.96612484E-07 -0.94518464E-07 -0.91556497E-07 -0.87762910E-07
 -0.83181477E-07 -0.77862934E-07 -0.71864438E-07 -0.65248969E-07 -0.58084679E-07
 -0.50444203E-07 -0.42403939E-07 -0.34043290E-07 -0.25443892E-07 -0.16688827E-07
 -0.78618317E-08  0.95349791E-09  0.96744849E-08  0.18220139E-07  0.26511902E-07
  0.34474354E-07  0.42035898E-07  0.49129389E-07  0.55692724E-07  0.61669369E-07
  0.67008846E-07  0.71667135E-07  0.75607037E-07  0.78798449E-07  0.81218578E-07
  0.82852091E-07  0.83691180E-07  0.83735568E-07  0.82992435E-07  0.81476285E-07
  0.79208735E-07  0.76218247E-07  0.72539795E-07  0.68214474E-07  0.63289060E-07
  0.57815513E-07  0.51850445E-07  0.45454541E-07  0.38691952E-07  0.31629665E-07
  0.24336843E-07  0.16884157E-07  0.93431126E-08  0.17853670E-08 -0.57179411E-08
 -0.13096855E-07 -0.20283243E-07 -0.27211424E-07 -0.33818756E-07 -0.40046196E-07
 -0.45838821E-07 -0.51146304E-07 -0.55923343E-07 -0.60130036E-07 -0.63732210E-07
 -0.66701681E-07 -0.69016469E-07 -0.70660941E-07 -0.71625903E-07 -0.71908621E-07
 -0.71512791E-07 -0.70448443E-07 -0.68731786E-07 -0.66385001E-07 -0.63435977E-07
   16.2516435017787      T
 Non local Part
           0           2   1.24080360885718     
   13.9088076706990        15.1828324785864        15.1828324785864     
   16.5749971685762     
 Reciprocal Space Part
 -0.19595324E+03 -0.19435743E+03 -0.18959584E+03 -0.18174557E+03 -0.17093345E+03
 -0.15733378E+03 -0.14116497E+03 -0.12268554E+03 -0.10218933E+03 -0.80000057E+02
 -0.56465391E+02 -0.31950633E+02 -0.68321130E+01  0.18509530E+02  0.43696077E+02
  0.68358312E+02  0.92142342E+02  0.11471553E+03  0.13577194E+03  0.15503714E+03
  0.17227237E+03  0.18727793E+03  0.19989573E+03  0.21001107E+03  0.21755344E+03
  0.22249657E+03  0.22485758E+03  0.22469535E+03  0.22210809E+03  0.21723031E+03
  0.21022909E+03  0.20129993E+03  0.19066212E+03  0.17855388E+03  0.16522717E+03
  0.15094262E+03  0.13596430E+03  0.12055470E+03  0.10496996E+03  0.89455419E+02
  0.74241492E+02  0.59540127E+02  0.45541723E+02  0.32412652E+02  0.20293366E+02
  0.92971378E+01 -0.49059435E+00 -0.90122695E+01 -0.16237672E+02 -0.22162861E+02
 -0.26808605E+02 -0.30218389E+02 -0.32456049E+02 -0.33603113E+02 -0.33755915E+02
 -0.33022565E+02 -0.31519844E+02 -0.29370108E+02 -0.26698254E+02 -0.23628830E+02
 -0.20283345E+02 -0.16777812E+02 -0.13220597E+02 -0.97105736E+01 -0.63356405E+01
 -0.31715850E+01 -0.28132029E+00  0.22855198E+01  0.44926382E+01  0.63168057E+01
  0.77472924E+01  0.87850354E+01  0.94415785E+01  0.97378276E+01  0.97026646E+01
  0.93714658E+01  0.87845676E+01  0.79857253E+01  0.70206029E+01  0.59353338E+01
  0.47751837E+01  0.35833447E+01  0.23998843E+01  0.12608646E+01  0.19764605E+00
 -0.76362069E+00 -0.16023135E+01 -0.23034728E+01 -0.28577616E+01 -0.32612643E+01
 -0.35151424E+01 -0.36251681E+01 -0.36011574E+01 -0.34563263E+01 -0.32065968E+01
 -0.28698735E+01 -0.24653181E+01 -0.20126405E+01 -0.15314291E+01 -0.10405359E+01
 Real Space Part
  0.60043486E+03  0.60019362E+03  0.59946990E+03  0.59826380E+03  0.59657546E+03
  0.59440510E+03  0.59175302E+03  0.58861960E+03  0.58500533E+03  0.58091081E+03
  0.57633678E+03  0.57128416E+03  0.56575403E+03  0.55974770E+03  0.55326672E+03
  0.54631290E+03  0.53888839E+03  0.53099567E+03  0.52263761E+03  0.51381751E+03
  0.50453918E+03  0.49480692E+03  0.48462564E+03  0.47400087E+03  0.46293885E+03
  0.45144656E+03  0.43953180E+03  0.42720326E+03  0.41447056E+03  0.40134436E+03
  0.38783639E+03  0.37395954E+03  0.35972794E+03  0.34515704E+03  0.33026363E+03
  0.31506601E+03  0.29958397E+03  0.28383890E+03  0.26785389E+03  0.25165373E+03
  0.23526502E+03  0.21871621E+03  0.20203765E+03  0.18526161E+03  0.16842233E+03
  0.15155606E+03  0.13470098E+03  0.11789727E+03  0.10118705E+03  0.84614292E+02
  0.68224787E+02  0.52066014E+02  0.36187010E+02  0.20638206E+02  0.54712195E+01
 -0.92613786E+01 -0.23506347E+02 -0.37210095E+02 -0.50319046E+02 -0.62780044E+02
 -0.74540810E+02 -0.85550440E+02 -0.95759938E+02 -0.10512281E+03 -0.11359565E+03
 -0.12113882E+03 -0.12771711E+03 -0.13330039E+03 -0.13786432E+03 -0.14139105E+03
 -0.14386982E+03 -0.14529762E+03 -0.14567973E+03 -0.14503024E+03 -0.14337242E+03
 -0.14073906E+03 -0.13717263E+03 -0.13272532E+03 -0.12745896E+03 -0.12144473E+03
 -0.11476278E+03 -0.10750163E+03 -0.99757361E+02 -0.91632808E+02 -0.83236410E+02
 -0.74681108E+02 -0.66082982E+02 -0.57559939E+02 -0.49230230E+02 -0.41211021E+02
 -0.33616920E+02 -0.26558553E+02 -0.20141199E+02 -0.14463523E+02 -0.96163731E+01
 -0.56819619E+01 -0.27328103E+01 -0.82541580E+00 -0.45272292E-01  0.00000000E+00
 Reciprocal Space Part
  0.18660718E+03  0.18512770E+03  0.18071316E+03  0.17343478E+03  0.16340975E+03
  0.15079910E+03  0.13580466E+03  0.11866531E+03  0.99652566E+02  0.79065602E+02
  0.57225744E+02  0.34470645E+02  0.11148195E+02 -0.12389683E+02 -0.35793246E+02
 -0.58721002E+02 -0.80845556E+02 -0.10185908E+03 -0.12147833E+03 -0.13944913E+03
 -0.15555017E+03 -0.16959616E+03 -0.18144020E+03 -0.19097541E+03 -0.19813570E+03
 -0.20289583E+03 -0.20527059E+03 -0.20531334E+03 -0.20311379E+03 -0.19879516E+03
 -0.19251083E+03 -0.18444041E+03 -0.17478559E+03 -0.16376557E+03 -0.15161233E+03
 -0.13856593E+03 -0.12486969E+03 -0.11076560E+03 -0.96489876E+02 -0.82268824E+02
 -0.68315120E+02 -0.54824472E+02 -0.41972796E+02 -0.29913918E+02 -0.18777824E+02
 -0.86694861E+01  0.33174316E+00  0.81721850E+01  0.14823351E+02  0.20280963E+02
  0.24563524E+02  0.27710482E+02  0.29780064E+02  0.30846828E+02  0.30999008E+02
  0.30335730E+02  0.28964153E+02  0.26996616E+02  0.24547851E+02  0.21732316E+02
  0.18661714E+02  0.15442736E+02  0.12175071E+02  0.89497092E+01  0.58475662E+01
  0.29384393E+01  0.28029803E+00 -0.20810928E+01 -0.41122299E+01 -0.57916279E+01
 -0.71093005E+01 -0.80659969E+01 -0.86722299E+01 -0.89471324E+01 -0.89171849E+01
 -0.86148526E+01 -0.80771758E+01 -0.73443520E+01 -0.64583468E+01 -0.54615695E+01
 -0.43956425E+01 -0.33002913E+01 -0.22123761E+01 -0.11650811E+01 -0.18727215E+00
  0.69697185E+00  0.14686534E+01  0.21139814E+01  0.26243350E+01  0.29960802E+01
  0.32302540E+01  0.33321364E+01  0.33107294E+01  0.31781658E+01  0.29490707E+01
  0.26398970E+01  0.22682576E+01  0.18522737E+01  0.14099583E+01  0.95865070E+00
 Real Space Part
 -0.54738786E+03 -0.54716717E+03 -0.54650509E+03 -0.54540171E+03 -0.54385716E+03
 -0.54187165E+03 -0.53944542E+03 -0.53657884E+03 -0.53327233E+03 -0.52952644E+03
 -0.52534185E+03 -0.52071938E+03 -0.51566002E+03 -0.51016494E+03 -0.50423556E+03
 -0.49787354E+03 -0.49108081E+03 -0.48385964E+03 -0.47621266E+03 -0.46814287E+03
 -0.45965373E+03 -0.45074920E+03 -0.44143375E+03 -0.43171243E+03 -0.42159096E+03
 -0.41107571E+03 -0.40017383E+03 -0.38889326E+03 -0.37724283E+03 -0.36523228E+03
 -0.35287236E+03 -0.34017489E+03 -0.32715281E+03 -0.31382026E+03 -0.30019267E+03
 -0.28628678E+03 -0.27212075E+03 -0.25771420E+03 -0.24308827E+03 -0.22826572E+03
 -0.21327095E+03 -0.19813003E+03 -0.18287081E+03 -0.16752289E+03 -0.15211768E+03
 -0.13668841E+03 -0.12127014E+03 -0.10589971E+03 -0.90615761E+02 -0.75458633E+02
 -0.60470332E+02 -0.45694416E+02 -0.31175867E+02 -0.16960950E+02 -0.30970139E+01
  0.10367719E+02  0.23384414E+02  0.35903918E+02  0.47877093E+02  0.59255194E+02
  0.69990283E+02  0.80035687E+02  0.89346494E+02  0.97880083E+02  0.10559669E+03
  0.11246001E+03  0.11843779E+03  0.12350248E+03  0.12763181E+03  0.13080951E+03
  0.13302580E+03  0.13427803E+03  0.13457117E+03  0.13391827E+03  0.13234082E+03
  0.12986904E+03  0.12654205E+03  0.12240789E+03  0.11752346E+03  0.11195422E+03
  0.10577387E+03  0.99063799E+02  0.91912325E+02  0.84413959E+02  0.76668348E+02
  0.68779263E+02  0.60853348E+02  0.52998909E+02  0.45324558E+02  0.37937895E+02
  0.30944160E+02  0.24444921E+02  0.18536824E+02  0.13310427E+02  0.88490996E+01
  0.52282671E+01  0.25144456E+01  0.75941794E+00  0.41646290E-01  0.00000000E+00
 Non local Part
           1           2   1.24080360885718     
   4.88372397502017        6.96365605283036        6.96365605283036     
   9.93508266952608     
 Reciprocal Space Part
  0.00000000E+00  0.67470641E+01  0.13316955E+02  0.19536242E+02  0.25238891E+02
  0.30269766E+02  0.34487886E+02  0.37769370E+02  0.40010018E+02  0.41127454E+02
  0.41062805E+02  0.39781861E+02  0.37275715E+02  0.33560860E+02  0.28678737E+02
  0.22694772E+02  0.15696900E+02  0.77936343E+01 -0.88829018E+00 -0.10206628E+02
 -0.20006636E+02 -0.30124317E+02 -0.40389818E+02 -0.50630908E+02 -0.60676463E+02
 -0.70359873E+02 -0.79522308E+02 -0.88015768E+02 -0.95705858E+02 -0.10247423E+03
 -0.10822063E+03 -0.11286459E+03 -0.11634655E+03 -0.11862867E+03 -0.11969507E+03
 -0.11955166E+03 -0.11822545E+03 -0.11576356E+03 -0.11223172E+03 -0.10771249E+03
 -0.10230316E+03 -0.96113388E+02 -0.89262725E+02 -0.81877903E+02 -0.74090147E+02
 -0.66032447E+02 -0.57836898E+02 -0.49632153E+02 -0.41541043E+02 -0.33678410E+02
 -0.26149195E+02 -0.19046818E+02 -0.12451860E+02 -0.64310857E+01 -0.10368009E+01
  0.36934545E+01  0.77368757E+01  0.11085048E+02  0.13743307E+02  0.15729829E+02
  0.17074486E+02  0.17817510E+02  0.18007991E+02  0.17702265E+02  0.16962231E+02
  0.15853638E+02  0.14444380E+02  0.12802858E+02  0.10996409E+02  0.90898780E+01
  0.71443229E+01  0.52158987E+01  0.33549286E+01  0.16051758E+01  0.33226456E-02
 -0.14213436E+01 -0.26470414E+01 -0.36594127E+01 -0.44512614E+01 -0.50221307E+01
 -0.53777391E+01 -0.55293003E+01 -0.54927504E+01 -0.52879099E+01 -0.49376059E+01
 -0.44667803E+01 -0.39016095E+01 -0.32686579E+01 -0.25940853E+01 -0.19029269E+01
 -0.12184610E+01 -0.56167400E+00  0.49166991E-01  0.59883057E+00  0.10753252E+01
  0.14699930E+01  0.17774979E+01  0.19957169E+01  0.21255431E+01  0.21706134E+01
 Real Space Part
  0.00000000E+00 -0.13227699E+02 -0.26421929E+02 -0.39549280E+02 -0.52576463E+02
 -0.65470373E+02 -0.78198145E+02 -0.90727217E+02 -0.10302540E+03 -0.11506091E+03
 -0.12680248E+03 -0.13821938E+03 -0.14928149E+03 -0.15995939E+03 -0.17022439E+03
 -0.18004860E+03 -0.18940504E+03 -0.19826764E+03 -0.20661137E+03 -0.21441227E+03
 -0.22164754E+03 -0.22829560E+03 -0.23433619E+03 -0.23975042E+03 -0.24452084E+03
 -0.24863154E+03 -0.25206822E+03 -0.25481828E+03 -0.25687089E+03 -0.25821707E+03
 -0.25884979E+03 -0.25876404E+03 -0.25795692E+03 -0.25642775E+03 -0.25417811E+03
 -0.25121197E+03 -0.24753577E+03 -0.24315845E+03 -0.23809163E+03 -0.23234958E+03
 -0.22594940E+03 -0.21891099E+03 -0.21125719E+03 -0.20301382E+03 -0.19420968E+03
 -0.18487663E+03 -0.17504963E+03 -0.16476666E+03 -0.15406882E+03 -0.14300021E+03
 -0.13160792E+03 -0.11994192E+03 -0.10805498E+03 -0.96002494E+02 -0.83842333E+02
 -0.71634597E+02 -0.59441375E+02 -0.47326433E+02 -0.35354861E+02 -0.23592682E+02
 -0.12106393E+02 -0.96246805E+00  0.97731924E+01  0.20035863E+02  0.29762639E+02
  0.38893120E+02  0.47370139E+02  0.55140505E+02  0.62155776E+02  0.68373033E+02
  0.73755647E+02  0.78274028E+02  0.81906334E+02  0.84639119E+02  0.86467912E+02
  0.87397722E+02  0.87443387E+02  0.86629831E+02  0.84992191E+02  0.82575724E+02
  0.79435618E+02  0.75636600E+02  0.71252335E+02  0.66364745E+02  0.61063035E+02
  0.55442711E+02  0.49604319E+02  0.43652206E+02  0.37693083E+02  0.31834607E+02
  0.26183892E+02  0.20846039E+02  0.15922700E+02  0.11510703E+02  0.77007530E+01
  0.45763653E+01  0.22127540E+01  0.67300569E+00  0.27259340E-01  0.00000000E+00
 Reciprocal Space Part
  0.00000000E+00 -0.43316328E+01 -0.85437385E+01 -0.12519338E+02 -0.16146494E+02
 -0.19320687E+02 -0.21947042E+02 -0.23942325E+02 -0.25236703E+02 -0.25775196E+02
 -0.25518817E+02 -0.24445356E+02 -0.22549807E+02 -0.19844425E+02 -0.16358409E+02
 -0.12137236E+02 -0.72416409E+01 -0.17462919E+01  0.42618264E+01  0.10685273E+02
  0.17418213E+02  0.24348640E+02  0.31360696E+02  0.38337055E+02  0.45161296E+02
  0.51720235E+02  0.57906148E+02  0.63618849E+02  0.68767579E+02  0.73272661E+02
  0.77066902E+02  0.80096697E+02  0.82322839E+02  0.83721006E+02  0.84281931E+02
  0.84011255E+02  0.82929066E+02  0.81069163E+02  0.78478040E+02  0.75213642E+02
  0.71343911E+02  0.66945174E+02  0.62100393E+02  0.56897342E+02  0.51426737E+02
  0.45780365E+02  0.40049259E+02  0.34321952E+02  0.28682847E+02  0.23210734E+02
  0.17977490E+02  0.13046967E+02  0.84741055E+01  0.43042723E+01  0.57282836E+00
 -0.26950652E+01 -0.54844154E+01 -0.77901465E+01 -0.96166477E+01 -0.10977136E+02
 -0.11892860E+02 -0.12392167E+02 -0.12509465E+02 -0.12284105E+02 -0.11759216E+02
 -0.10980523E+02 -0.99951730E+01 -0.88505980E+01 -0.75934430E+01 -0.62685757E+01
 -0.49182011E+01 -0.35810948E+01 -0.22919667E+01 -0.10809646E+01  0.26680405E-01
  0.10108645E+01  0.18566821E+01  0.25543640E+01  0.30990913E+01  0.34906991E+01
  0.37332831E+01  0.38347261E+01  0.38061620E+01  0.36613941E+01  0.34162873E+01
  0.30881516E+01  0.26951329E+01  0.22556288E+01  0.17877412E+01  0.13087803E+01
  0.83482862E+00  0.38037327E+00 -0.41987793E-01 -0.42176247E+00 -0.75070367E+00
 -0.10228721E+01 -0.12346267E+01 -0.13845469E+01 -0.14732959E+01 -0.15034306E+01
 Real Space Part
  0.00000000E+00  0.93057597E+01  0.18588107E+02  0.27823673E+02  0.36989171E+02
  0.46061443E+02  0.55017500E+02  0.63834564E+02  0.72490113E+02  0.80961921E+02
  0.89228107E+02  0.97267172E+02  0.10505805E+03  0.11258015E+03  0.11981339E+03
  0.12673827E+03  0.13333589E+03  0.13958802E+03  0.14547713E+03  0.15098644E+03
  0.15610001E+03  0.16080270E+03  0.16508033E+03  0.16891966E+03  0.17230846E+03
  0.17523557E+03  0.17769095E+03  0.17966575E+03  0.18115236E+03  0.18214444E+03
  0.18263704E+03  0.18262658E+03  0.18211099E+03  0.18108972E+03  0.17956381E+03
  0.17753595E+03  0.17501055E+03  0.17199381E+03  0.16849372E+03  0.16452018E+03
  0.16008503E+03  0.15520208E+03  0.14988717E+03  0.14415823E+03  0.13803526E+03
  0.13154041E+03  0.12469796E+03  0.11753433E+03  0.11007808E+03  0.10235991E+03
  0.94412554E+02  0.86270798E+02  0.77971362E+02  0.69552810E+02  0.61055426E+02
  0.52521068E+02  0.43992980E+02  0.35515585E+02  0.27134245E+02  0.18894977E+02
  0.10844147E+02  0.30281179E+01 -0.45071296E+01 -0.11716416E+02 -0.18555810E+02
 -0.24983105E+02 -0.30958325E+02 -0.36444242E+02 -0.41406910E+02 -0.45816207E+02
 -0.49646371E+02 -0.52876515E+02 -0.55491126E+02 -0.57480517E+02 -0.58841229E+02
 -0.59576387E+02 -0.59695943E+02 -0.59216858E+02 -0.58163193E+02 -0.56566051E+02
 -0.54463442E+02 -0.51900022E+02 -0.48926671E+02 -0.45600031E+02 -0.41981824E+02
 -0.38138182E+02 -0.34138761E+02 -0.30055898E+02 -0.25963599E+02 -0.21936565E+02
 -0.18049156E+02 -0.14374366E+02 -0.10982833E+02 -0.79418748E+01 -0.53145894E+01
 -0.31591129E+01 -0.15278432E+01 -0.46479475E+00 -0.18813291E-01  0.00000000E+00
 Non local Part
           2           1   1.24080360885718     
   14.0781321971840     
 Reciprocal Space Part
  0.00000000E+00  0.24001314E-01  0.95581607E-01  0.21347801E+00  0.37561253E+00
  0.57913161E+00  0.82046039E+00  0.10953705E+01  0.13990598E+01  0.17262432E+01
  0.20712508E+01  0.24281344E+01  0.27907766E+01  0.31530030E+01  0.35086947E+01
  0.38518971E+01  0.41769254E+01  0.44784633E+01  0.47516528E+01  0.49921741E+01
  0.51963142E+01  0.53610226E+01  0.54839531E+01  0.55634916E+01  0.55987692E+01
  0.55896612E+01  0.55367715E+01  0.54414036E+01  0.53055188E+01  0.51316835E+01
  0.49230055E+01  0.46830623E+01  0.44158223E+01  0.41255612E+01  0.38167744E+01
  0.34940889E+01  0.31621753E+01  0.28256617E+01  0.24890525E+01  0.21566513E+01
  0.18324924E+01  0.15202789E+01  0.12233305E+01  0.94454101E+00  0.68634612E+00
  0.45070175E+00  0.23907288E+00  0.52432750E-01 -0.10872798E+00 -0.24438281E+00
 -0.35494258E+00 -0.44122104E+00 -0.50439412E+00 -0.54595400E+00 -0.56765915E+00
 -0.57148181E+00 -0.55955404E+00 -0.53411366E+00 -0.49745135E+00 -0.45185991E+00
 -0.39958674E+00 -0.34279043E+00 -0.28350229E+00 -0.22359316E+00 -0.16474628E+00
 -0.10843616E+00 -0.55913805E-01 -0.81980797E-02  0.33926879E-01  0.69908580E-01
  0.99417855E-01  0.12233586E+00  0.13873701E+00  0.14886859E+00  0.15312772E+00
  0.15203646E+00  0.14621580E+00  0.13635936E+00  0.12320730E+00  0.10752131E+00
  0.90061127E-01  0.71563074E-01  0.52721138E-01  0.34170792E-01  0.16475851E-01
  0.11846862E-03 -0.14507683E-01 -0.27101118E-01 -0.37453248E-01 -0.45446319E-01
 -0.51048850E-01 -0.54308884E-01 -0.55345433E-01 -0.54338490E-01 -0.51518021E-01
 -0.47152340E-01 -0.41536255E-01 -0.34979369E-01 -0.27794864E-01 -0.20289084E-01
 Real Space Part
  0.00000000E+00  0.31999297E-02  0.12795210E-01  0.28772305E-01  0.51108607E-01
  0.79772382E-01  0.11472268E+00  0.15590920E+00  0.20327221E+00  0.25674232E+00
  0.31624033E+00  0.38167703E+00  0.45295295E+00  0.52995812E+00  0.61257181E+00
  0.70066222E+00  0.79408620E+00  0.89268888E+00  0.99630339E+00  0.11047505E+01
  0.12178381E+01  0.13353611E+01  0.14571010E+01  0.15828253E+01  0.17122871E+01
  0.18452252E+01  0.19813632E+01  0.21204093E+01  0.22620562E+01  0.24059804E+01
  0.25518423E+01  0.26992855E+01  0.28479369E+01  0.29974067E+01  0.31472878E+01
  0.32971563E+01  0.34465710E+01  0.35950742E+01  0.37421913E+01  0.38874319E+01
  0.40302895E+01  0.41702428E+01  0.43067563E+01  0.44392814E+01  0.45672576E+01
  0.46901140E+01  0.48072708E+01  0.49181418E+01  0.50221361E+01  0.51186613E+01
  0.52071258E+01  0.52869426E+01  0.53575326E+01  0.54183289E+01  0.54687810E+01
  0.55083596E+01  0.55365619E+01  0.55529171E+01  0.55569922E+01  0.55483983E+01
  0.55267970E+01  0.54919071E+01  0.54435116E+01  0.53814643E+01  0.53056968E+01
  0.52162252E+01  0.51131561E+01  0.49966932E+01  0.48671420E+01  0.47249146E+01
  0.45705331E+01  0.44046323E+01  0.42279607E+01  0.40413801E+01  0.38458636E+01
  0.36424923E+01  0.34324495E+01  0.32170133E+01  0.29975478E+01  0.27754913E+01
  0.25523442E+01  0.23296543E+01  0.21090008E+01  0.18919781E+01  0.16801770E+01
  0.14751677E+01  0.12784804E+01  0.10915879E+01  0.91588791E+00  0.75268653E+00
  0.60318341E+00  0.46845837E+00  0.34945951E+00  0.24699459E+00  0.16172302E+00
  0.94154106E-01  0.44642520E-01  0.13308835E-01  0.66086983E-03  0.00000000E+00
 PAW radial sets
         363   1.18970919762334     
(5E20.12)                                
 augmentation charges (non sperical)
 -0.423729469246E+00 -0.460470248013E+00 -0.190179679832E+00 -0.276423992760E+00 -0.779667855447E-01
 -0.460470248013E+00 -0.500414205845E+00 -0.206972853445E+00 -0.300806278204E+00 -0.847828589728E-01
 -0.190179679832E+00 -0.206972853445E+00 -0.880092362743E-01 -0.127710669747E+00 -0.225134153779E-01
 -0.276423992760E+00 -0.300806278204E+00 -0.127710669747E+00 -0.185346466136E+00 -0.339167487341E-01
 -0.779667855447E-01 -0.847828589728E-01 -0.225134153779E-01 -0.339167487341E-01  0.833718723899E-01
 uccopancies in atom
  0.200000000340E+01  0.000000000000E+00  0.000000000000E+00  0.000000000000E+00  0.000000000000E+00
  0.000000000000E+00  0.000000000000E+00  0.000000000000E+00  0.000000000000E+00  0.000000000000E+00
  0.000000000000E+00  0.000000000000E+00  0.133333333663E+01  0.000000000000E+00  0.000000000000E+00
  0.000000000000E+00  0.000000000000E+00  0.000000000000E+00  0.000000000000E+00  0.000000000000E+00
  0.000000000000E+00  0.000000000000E+00  0.000000000000E+00  0.000000000000E+00  0.000000000000E+00
 grid
  0.585112745769E-04  0.604139152584E-04  0.623784250683E-04  0.644068158364E-04  0.665011648120E-04
  0.686636167916E-04  0.708963863149E-04  0.732017599330E-04  0.755820985500E-04  0.780398398405E-04
  0.805775007466E-04  0.831976800546E-04  0.859030610571E-04  0.886964143008E-04  0.915806004233E-04
  0.945585730835E-04  0.976333819853E-04  0.100808176002E-03  0.104086206400E-03  0.107470830169E-03
  0.110965513459E-03  0.114573835131E-03  0.118299490423E-03  0.122146294731E-03  0.126118187518E-03
  0.130219236349E-03  0.134453641058E-03  0.138825738044E-03  0.143340004718E-03  0.148001064082E-03
  0.152813689468E-03  0.157782809426E-03  0.162913512769E-03  0.168211053784E-03  0.173680857618E-03
  0.179328525827E-03  0.185159842117E-03  0.191180778265E-03  0.197397500237E-03  0.203816374498E-03
  0.210443974537E-03  0.217287087596E-03  0.224352721619E-03  0.231648112435E-03  0.239180731160E-03
  0.246958291854E-03  0.254988759419E-03  0.263280357757E-03  0.271841578187E-03  0.280681188148E-03
  0.289808240172E-03  0.299232081159E-03  0.308962361946E-03  0.319009047190E-03  0.329382425574E-03
  0.340093120345E-03  0.351152100190E-03  0.362570690471E-03  0.374360584822E-03  0.386533857125E-03
  0.399102973874E-03  0.412080806945E-03  0.425480646771E-03  0.439316215959E-03  0.453601683342E-03
  0.468351678487E-03  0.483581306677E-03  0.499306164382E-03  0.515542355231E-03  0.532306506502E-03
  0.549615786152E-03  0.567487920394E-03  0.585941211856E-03  0.604994558321E-03  0.624667472080E-03
  0.644980099918E-03  0.665953243738E-03  0.687608381875E-03  0.709967691080E-03  0.733054069241E-03
  0.756891158827E-03  0.781503371099E-03  0.806915911115E-03  0.833154803535E-03  0.860246919279E-03
  0.888220003041E-03  0.917102701702E-03  0.946924593670E-03  0.977716219168E-03  0.100950911151E-02
  0.104233582940E-02  0.107622999026E-02  0.111122630468E-02  0.114736061194E-02  0.118466991672E-02
  0.122319242703E-02  0.126296759326E-02  0.130403614868E-02  0.134644015106E-02  0.139022302581E-02
  0.143542961043E-02  0.148210620040E-02  0.153030059664E-02  0.158006215441E-02  0.163144183389E-02
  0.168449225238E-02  0.173926773814E-02  0.179582438604E-02  0.185422011504E-02  0.191451472747E-02
  0.197676997027E-02  0.204104959827E-02  0.210741943941E-02  0.217594746221E-02  0.224670384536E-02
  0.231976104957E-02  0.239519389180E-02  0.247307962188E-02  0.255349800161E-02  0.263653138642E-02
  0.272226480977E-02  0.281078607016E-02  0.290218582111E-02  0.299655766394E-02  0.309399824368E-02
  0.319460734798E-02  0.329848800937E-02  0.340574661071E-02  0.351649299419E-02  0.363084057379E-02
  0.374890645141E-02  0.387081153683E-02  0.399668067151E-02  0.412664275645E-02  0.426083088418E-02
  0.439938247506E-02  0.454243941803E-02  0.469014821590E-02  0.484266013540E-02  0.500013136204E-02
  0.516272316013E-02  0.533060203788E-02  0.550393991793E-02  0.568291431341E-02  0.586770850974E-02
  0.605851175233E-02  0.625551944038E-02  0.645893332697E-02  0.666896172570E-02  0.688581972399E-02
  0.710972940340E-02  0.734092006699E-02  0.757962847421E-02  0.782609908333E-02  0.808058430179E-02
  0.834334474470E-02  0.861464950169E-02  0.889477641257E-02  0.918401235175E-02  0.948265352212E-02
  0.979100575833E-02  0.101093848400E-01  0.104381168152E-01  0.107775383341E-01  0.111279969941E-01
  0.114898516953E-01  0.118634730088E-01  0.122492435553E-01  0.126475583976E-01  0.130588254449E-01
  0.134834658706E-01  0.139219145436E-01  0.143746204736E-01  0.148420472711E-01  0.153246736220E-01
  0.158229937778E-01  0.163375180619E-01  0.168687733921E-01  0.174173038204E-01  0.179836710898E-01
  0.185684552098E-01  0.191722550506E-01  0.197956889560E-01  0.204393953766E-01  0.211040335242E-01
  0.217902840463E-01  0.224988497233E-01  0.232304561886E-01  0.239858526709E-01  0.247658127624E-01
  0.255711352103E-01  0.264026447352E-01  0.272611928754E-01  0.281476588594E-01  0.290629505056E-01
  0.300080051529E-01  0.309837906196E-01  0.319913061955E-01  0.330315836644E-01  0.341056883615E-01
  0.352147202637E-01  0.363598151167E-01  0.375421455976E-01  0.387629225163E-01  0.400233960548E-01
  0.413248570484E-01  0.426686383067E-01  0.440561159792E-01  0.454887109643E-01  0.469678903644E-01
  0.484951689885E-01  0.500721109033E-01  0.517003310353E-01  0.533814968240E-01  0.551173299301E-01
  0.569096079985E-01  0.587601664785E-01  0.606709005037E-01  0.626437668327E-01  0.646807858531E-01
  0.667840436502E-01  0.689556941439E-01  0.711979612940E-01  0.735131413781E-01  0.759036053429E-01
  0.783718012323E-01  0.809202566946E-01  0.835515815710E-01  0.862684705680E-01  0.890737060173E-01
  0.919701607253E-01  0.949608009146E-01  0.980486892621E-01  0.101236988035E+00  0.104528962331E+00
  0.107927983418E+00  0.111437532191E+00  0.115061202736E+00  0.118802706006E+00  0.122665873629E+00
  0.126654661825E+00  0.130773155463E+00  0.135025572240E+00  0.139416267001E+00  0.143949736203E+00
  0.148630622514E+00  0.153463719570E+00  0.158453976885E+00  0.163606504919E+00  0.168926580311E+00
  0.174419651282E+00  0.180091343218E+00  0.185947464426E+00  0.191994012087E+00  0.198237178394E+00
  0.204683356894E+00  0.211339149038E+00  0.218211370938E+00  0.225307060350E+00  0.232633483880E+00
  0.240198144426E+00  0.248008788862E+00  0.256073415970E+00  0.264400284632E+00  0.272997922290E+00
  0.281875133676E+00  0.291041009831E+00  0.300504937412E+00  0.310276608309E+00  0.320366029566E+00
  0.330783533632E+00  0.341539788941E+00  0.352645810840E+00  0.364112972865E+00  0.375953018392E+00
  0.388178072662E+00  0.400800655199E+00  0.413833692631E+00  0.427290531926E+00  0.441184954065E+00
  0.455531188149E+00  0.470343925976E+00  0.485638337085E+00  0.501430084287E+00  0.517735339713E+00
  0.534570801369E+00  0.551953710238E+00  0.569901867939E+00  0.588433654953E+00  0.607568049450E+00
  0.627324646721E+00  0.647723679249E+00  0.668786037425E+00  0.690533290945E+00  0.712987710897E+00
  0.736172292568E+00  0.760110778997E+00  0.784827685286E+00  0.810348323706E+00  0.836698829621E+00
  0.863906188252E+00  0.891998262312E+00  0.921003820538E+00  0.950952567159E+00  0.981875172306E+00
  0.101380330343E+01  0.104676965773E+01  0.108080799563E+01  0.111595317536E+01  0.115224118866E+01
  0.118970919762E+01  0.122839557277E+01  0.126833993232E+01  0.130958318280E+01  0.135216756090E+01
  0.139613667673E+01  0.144153555852E+01  0.148841069869E+01  0.153681010148E+01  0.158678333211E+01
  0.163838156753E+01  0.169165764885E+01  0.174666613542E+01  0.180346336074E+01  0.186210749014E+01
  0.192265858033E+01  0.198517864092E+01  0.204973169791E+01  0.211638385927E+01  0.218520338264E+01
  0.225626074523E+01  0.232962871598E+01  0.240538243011E+01  0.248359946604E+01  0.256435992485E+01
  0.264774651231E+01  0.273384462358E+01  0.282274243063E+01  0.291453097259E+01  0.300930424895E+01
  0.310715931583E+01  0.320819638537E+01  0.331251892835E+01  0.342023378018E+01  0.353145125027E+01
  0.364628523503E+01  0.376485333451E+01  0.388727697278E+01  0.401368152237E+01  0.414419643257E+01
  0.427895536205E+01  0.441809631573E+01  0.456176178612E+01  0.471009889920E+01  0.486325956514E+01
  0.502140063385E+01  0.518468405560E+01  0.535327704688E+01  0.552735226166E+01  0.570708796815E+01
  0.589266823143E+01  0.608428310191E+01  0.628212880995E+01
 aepotential
  0.967852925134E+04  0.980231930720E+04  0.991731431994E+04  0.100227063780E+05  0.101177200256E+05
  0.102016191472E+05  0.102737168616E+05  0.103333845424E+05  0.103800614346E+05  0.104132626678E+05
  0.104325873000E+05  0.104377250922E+05  0.104284621382E+05  0.104046852385E+05  0.103663850659E+05
  0.103136574293E+05  0.102467032668E+05  0.101658269845E+05  0.100714331155E+05  0.996402141731E+04
  0.984418107515E+04  0.971258189686E+04  0.956996770718E+04  0.941714437854E+04  0.925497131637E+04
  0.908434920004E+04  0.890620991555E+04  0.872150437560E+04  0.853119239678E+04  0.833623126779E+04
  0.813756619415E+04  0.793612073551E+04  0.773278842043E+04  0.752842527285E+04  0.732384335903E+04
  0.711980544902E+04  0.691702081325E+04  0.671614209365E+04  0.651776317548E+04  0.632241812895E+04
  0.613058102063E+04  0.594266658650E+04  0.575903159115E+04  0.557997685374E+04  0.540574978331E+04
  0.523654732735E+04  0.507251925057E+04  0.491377163480E+04  0.476037052084E+04  0.461234561443E+04
  0.446969398680E+04  0.433238371304E+04  0.420035739883E+04  0.407353555652E+04  0.395181979986E+04
  0.383509583521E+04  0.372323623367E+04  0.361610297625E+04  0.351354976762E+04  0.341542412186E+04
  0.332156922348E+04  0.323182557630E+04  0.314603243962E+04  0.306402908731E+04  0.298565587236E+04
  0.291075513727E+04  0.283917197694E+04  0.277075485292E+04  0.270535610495E+04  0.264283233864E+04
  0.258304472645E+04  0.252585923013E+04  0.247114673122E+04  0.241878312900E+04  0.236864935764E+04
  0.232063138006E+04  0.227462012721E+04  0.223051142475E+04  0.218820587732E+04  0.214760874988E+04
  0.210862981877E+04  0.207118322332E+04  0.203518730302E+04  0.200056443321E+04  0.196724085164E+04
  0.193514649438E+04  0.190421482266E+04  0.187438265698E+04  0.184559001394E+04  0.181777994499E+04
  0.179089838268E+04  0.176489399013E+04  0.173971801584E+04  0.171532415633E+04  0.169166842259E+04
  0.166870901240E+04  0.164640619202E+04  0.162472217839E+04  0.160362103172E+04  0.158306855180E+04
  0.156303217983E+04  0.154348090602E+04  0.152438518227E+04  0.150571684037E+04  0.148744901285E+04
  0.146955606164E+04  0.145201350923E+04  0.143479797286E+04  0.141788710625E+04  0.140125954036E+04
  0.138489483299E+04  0.136877341770E+04  0.135287655770E+04  0.133718630286E+04  0.132168544990E+04
  0.130635750467E+04  0.129118664779E+04  0.127615770248E+04  0.126125610529E+04  0.124646787916E+04
  0.123177960802E+04  0.121717841499E+04  0.120265194112E+04  0.118818832774E+04  0.117377619947E+04
  0.115940465006E+04  0.114506322985E+04  0.113074193480E+04  0.111643119788E+04  0.110212188203E+04
  0.108780527461E+04  0.107347308444E+04  0.105911743969E+04  0.104473088836E+04  0.103030640034E+04
  0.101583737122E+04  0.100131762838E+04  0.986741438899E+03  0.972103519620E+03  0.957399049504E+03
  0.942623684264E+03  0.927773573437E+03  0.912845380240E+03  0.897836304003E+03  0.882744105822E+03
  0.867567137177E+03  0.852304372099E+03  0.836955442862E+03  0.821520679408E+03  0.806001152808E+03
  0.790398722659E+03  0.774716088562E+03  0.758956845553E+03  0.743125543096E+03  0.727227747135E+03
  0.711270104277E+03  0.695260406710E+03  0.679207655855E+03  0.663122122150E+03  0.647015397289E+03
  0.630900434407E+03  0.614791570451E+03  0.598704523925E+03  0.582656360045E+03  0.566665414755E+03
  0.550751168912E+03  0.534934065200E+03  0.519235263302E+03  0.503676334667E+03  0.488278907781E+03
  0.473064289312E+03  0.458053106690E+03  0.443265043702E+03  0.428718770961E+03  0.414432203085E+03
  0.400423234934E+03  0.386711104890E+03  0.373318481934E+03  0.360274250208E+03  0.347616750470E+03
  0.335396937665E+03  0.323680580405E+03  0.312548383557E+03  0.302092895380E+03  0.292411600049E+03
  0.283596291430E+03  0.275720261352E+03  0.268825647590E+03  0.262913741504E+03  0.257940446741E+03
  0.253817780552E+03  0.250420874716E+03  0.247598947288E+03  0.245188337995E+03  0.243025677825E+03
  0.240959355251E+03  0.238857750743E+03  0.236613455863E+03  0.234143747738E+03  0.231388442699E+03
  0.228306497720E+03  0.224872416414E+03  0.221073011317E+03  0.216904689560E+03  0.212371252540E+03
  0.207482162941E+03  0.202251239104E+03  0.196695740577E+03  0.190835798230E+03  0.184694129839E+03
  0.178295971486E+03  0.171669151533E+03  0.164844232115E+03  0.157854643729E+03  0.150736739448E+03
  0.143529702510E+03  0.136275262388E+03  0.129017223842E+03  0.121800904027E+03  0.114672710770E+03
  0.107680257435E+03  0.100873520337E+03  0.943074492585E+02  0.880459297294E+02  0.821659337622E+02
  0.767592823539E+02  0.719284545465E+02  0.677734631946E+02  0.643696144920E+02  0.617404357230E+02
  0.598347543068E+02  0.585207053267E+02  0.576074779552E+02  0.568916912711E+02  0.562048590500E+02
  0.554350990138E+02  0.545181777034E+02  0.534152090319E+02  0.520955359077E+02  0.505309993259E+02
  0.486978612475E+02  0.465804240064E+02  0.441728229738E+02  0.414784533468E+02  0.385080477250E+02
  0.352775750296E+02  0.318066573249E+02  0.281177221217E+02  0.242358321405E+02  0.201890332336E+02
  0.160090330649E+02  0.117319811130E+02  0.739902138043E+01  0.305612257664E+01 -0.124748129613E+01
 -0.546291016246E+01 -0.954747927750E+01 -0.134713892174E+02 -0.172208770397E+02 -0.207894463746E+02
 -0.241476069423E+02 -0.271923802285E+02 -0.297088428704E+02 -0.314096795286E+02 -0.320997936350E+02
 -0.318929996257E+02 -0.312404968161E+02 -0.306296559352E+02 -0.302796163059E+02 -0.301663213165E+02
 -0.302021898546E+02 -0.303348069584E+02 -0.305566978987E+02 -0.308848949830E+02 -0.313403696746E+02
 -0.319360647041E+02 -0.326736252095E+02 -0.335453795974E+02 -0.345379208149E+02 -0.356351693983E+02
 -0.368202835283E+02 -0.380765749988E+02 -0.393877898121E+02 -0.407380681002E+02 -0.421117903282E+02
 -0.434934263002E+02 -0.448674644321E+02 -0.462184455931E+02 -0.475311352669E+02 -0.487908200455E+02
 -0.499836835350E+02 -0.510971977559E+02 -0.521203759774E+02 -0.530437728637E+02 -0.538591374180E+02
 -0.545587932649E+02 -0.551350692407E+02 -0.555803214305E+02 -0.558880499067E+02 -0.560550795730E+02
 -0.560838873781E+02 -0.559836140397E+02 -0.557688364572E+02 -0.554565384458E+02 -0.550628957916E+02
 -0.546012064981E+02 -0.540813919790E+02 -0.535105559688E+02 -0.528938971310E+02 -0.522355175992E+02
 -0.515389675712E+02 -0.508075617048E+02 -0.500445409977E+02 -0.492531499516E+02 -0.484366679430E+02
 -0.475984097277E+02 -0.467417115713E+02 -0.458698779748E+02 -0.449861290549E+02 -0.440935111782E+02
 -0.431947989632E+02 -0.422923922940E+02 -0.413882199453E+02 -0.404836774957E+02 -0.395796168257E+02
 -0.386764085822E+02 -0.377740789655E+02 -0.368725116442E+02 -0.359716711011E+02 -0.350718265655E+02
 -0.341737195508E+02 -0.332786612653E+02 -0.323885471353E+02 -0.315057941122E+02 -0.306332144326E+02
 -0.297738426919E+02 -0.289307334733E+02 -0.281067472533E+02 -0.273043443402E+02 -0.265254093624E+02
 -0.257711294412E+02 -0.250419446041E+02 -0.243375781110E+02 -0.236571395512E+02 -0.229992797453E+02
 -0.223623685725E+02 -0.217446670070E+02 -0.211444715819E+02 -0.205602196391E+02 -0.199905534109E+02
 -0.194343478912E+02 -0.188907109816E+02 -0.183589651041E+02 -0.178386183949E+02 -0.173293317259E+02
 -0.168308858269E+02 -0.163431510869E+02 -0.158660613263E+02 -0.153995919584E+02 -0.149437424178E+02
 -0.144985224443E+02 -0.140639416877E+02 -0.136400020814E+02
 core charge-density
  0.181648061585E-01  0.192656720366E-01  0.204329975892E-01  0.216707708671E-01  0.229832169372E-01
  0.243748117519E-01  0.258502968088E-01  0.274146946457E-01  0.290733252140E-01  0.308318231804E-01
  0.326961562044E-01  0.346726442464E-01  0.367679799594E-01  0.389892502229E-01  0.413439588785E-01
  0.438400507306E-01  0.464859368780E-01  0.492905214453E-01  0.522632297860E-01  0.554140382322E-01
  0.587535054692E-01  0.622928056177E-01  0.660437631062E-01  0.700188894249E-01  0.742314218508E-01
  0.786953642403E-01  0.834255299891E-01  0.884375872601E-01  0.937481065876E-01  0.993746109664E-01
  0.105335628540E+00  0.111650748002E+00  0.118340676839E+00  0.125427302524E+00  0.132933756805E+00
  0.140884483205E+00  0.149305307870E+00  0.158223513901E+00  0.167667919313E+00  0.177668958741E+00
  0.188258769059E+00  0.199471279034E+00  0.211342303163E+00  0.223909639837E+00  0.237213173966E+00
  0.251294984210E+00  0.266199454940E+00  0.281973393076E+00  0.298666149908E+00  0.316329748037E+00
  0.335019013535E+00  0.354791713426E+00  0.375708698579E+00  0.397834052092E+00  0.421235243209E+00
  0.445983286834E+00  0.472152908635E+00  0.499822715747E+00  0.529075373039E+00  0.559997784865E+00
  0.592681282215E+00  0.627221815105E+00  0.663720150038E+00  0.702282072280E+00  0.743018592674E+00
  0.786046158630E+00  0.831486868865E+00  0.879468691415E+00  0.930125684318E+00  0.983598218313E+00
  0.104003320078E+01  0.109958430008E+01  0.116241216921E+01  0.122868466780E+01  0.129857708107E+01
  0.137227233437E+01  0.144996120183E+01  0.153184250720E+01  0.161812331516E+01  0.170901911085E+01
  0.180475396523E+01  0.190556068396E+01  0.201168093664E+01  0.212336536370E+01  0.224087365731E+01
  0.236447461296E+01  0.249444614760E+01  0.263107528024E+01  0.277465807042E+01  0.292549950965E+01
  0.308391336067E+01  0.325022193885E+01  0.342475582992E+01  0.360785353755E+01  0.379986105432E+01
  0.400113134881E+01  0.421202376170E+01  0.443290330281E+01  0.466413984139E+01  0.490610718096E+01
  0.515918201029E+01  0.542374272152E+01  0.570016808651E+01  0.598883578207E+01  0.629012075500E+01
  0.660439341769E+01  0.693201766517E+01  0.727334870493E+01  0.762873069098E+01  0.799849415421E+01
  0.838295322202E+01  0.878240262063E+01  0.919711445514E+01  0.962733476322E+01  0.100732798403E+02
  0.105351323355E+02  0.110130371212E+02  0.115070969383E+02  0.120173678272E+02  0.125438543527E+02
  0.130865046381E+02  0.136452052264E+02  0.142197757915E+02  0.148099637276E+02  0.154154386492E+02
  0.160357868419E+02  0.166705057098E+02  0.173189982714E+02  0.179805677643E+02  0.186544124267E+02
  0.193396205316E+02  0.200351657562E+02  0.207399029819E+02  0.214525646232E+02  0.221717575973E+02
  0.228959610520E+02  0.236235249773E+02  0.243526698357E+02  0.250814873498E+02  0.258079425940E+02
  0.265298775395E+02  0.272450162045E+02  0.279509715626E+02  0.286452543594E+02  0.293252839825E+02
  0.299884015221E+02  0.306318851469E+02  0.312529679053E+02  0.318488580382E+02  0.324167618673E+02
  0.329539092892E+02  0.334575818704E+02  0.339251434942E+02  0.343540734617E+02  0.347420018954E+02
  0.350867472297E+02  0.353863555086E+02  0.356391411356E+02  0.358437286448E+02  0.359990949810E+02
  0.361046116909E+02  0.361600863449E+02  0.361658024216E+02  0.361225568082E+02  0.360316939890E+02
  0.358951359300E+02  0.357154066059E+02  0.354956500730E+02  0.352396409662E+02  0.349517862924E+02
  0.346371174132E+02  0.343012711583E+02  0.339504590934E+02  0.335914240805E+02  0.332313834227E+02
  0.328779580796E+02  0.325390876725E+02  0.322229312692E+02  0.319377542557E+02  0.316918019447E+02
  0.314931609566E+02  0.313496098157E+02  0.312684606375E+02  0.312563942221E+02  0.313192913700E+02
  0.314620635987E+02  0.316884869942E+02  0.320010432577E+02  0.324007723932E+02  0.328871417477E+02
  0.334579362864E+02  0.341091750355E+02  0.348350585315E+02  0.356279518730E+02  0.364784075570E+02
  0.373752316840E+02  0.383055963467E+02  0.392552000662E+02  0.402084770298E+02  0.411488546253E+02
  0.420590573554E+02  0.429214536871E+02  0.437184407558E+02  0.444328601552E+02  0.450484363575E+02
  0.455502276697E+02  0.459250781221E+02  0.461620573565E+02  0.462528745182E+02  0.461922514211E+02
  0.459782399331E+02  0.456124686875E+02  0.451003049219E+02  0.444509185533E+02  0.436772375279E+02
  0.427957860793E+02  0.418264007573E+02  0.407918229249E+02  0.397171707718E+02  0.386292986364E+02
  0.375560564026E+02  0.365254667173E+02  0.355648425289E+02  0.346998717027E+02  0.339536989871E+02
  0.333460381929E+02  0.328923489875E+02  0.326031131657E+02  0.324832446051E+02  0.325316653949E+02
  0.327410773288E+02  0.330979534208E+02  0.335827661975E+02  0.341704589733E+02  0.348311525266E+02
  0.355310664421E+02  0.362336247422E+02  0.369007090688E+02  0.374940169916E+02  0.379764765335E+02
  0.383136616527E+02  0.384751491916E+02  0.384357571001E+02  0.381766069081E+02  0.376859600076E+02
  0.369597865708E+02  0.360020371776E+02  0.348245998785E+02  0.334469389519E+02  0.318954255037E+02
  0.302023837762E+02  0.284048900337E+02  0.265433726845E+02  0.246600723663E+02  0.227974286044E+02
  0.209964648296E+02  0.192952454552E+02  0.177274767266E+02  0.163213164639E+02  0.150984459867E+02
  0.140734398655E+02  0.132534464369E+02  0.126381679887E+02  0.122201131955E+02  0.119850993977E+02
  0.119130125519E+02  0.119788598640E+02  0.121541046808E+02  0.124081463870E+02  0.127097542160E+02
  0.130283587827E+02  0.133351959785E+02  0.136043022942E+02  0.138133383567E+02  0.139442094426E+02
  0.139834578024E+02  0.139224156020E+02  0.137571249157E+02  0.134880480913E+02  0.131196045890E+02
  0.126595779682E+02  0.121184393290E+02  0.115086323215E+02  0.108438606977E+02  0.101384132715E+02
  0.940655390750E+01  0.866199634465E+01  0.791747619463E+01  0.718442536639E+01  0.647274818705E+01
  0.579069349710E+01  0.514481311448E+01  0.453999434423E+01  0.397955244703E+01  0.346536822410E+01
  0.299805611788E+01  0.257714938915E+01  0.220129097453E+01  0.186842118571E+01  0.157595596791E+01
  0.132095134445E+01  0.110025063345E+01  0.910611402011E+00  0.748809812801E+00  0.611721375824E+00
  0.496379353584E+00  0.400013622490E+00  0.320073757938E+00  0.254240020182E+00  0.200425361845E+00
  0.156770901622E+00  0.121636726743E+00  0.935894453694E-01  0.713875862082E-01  0.539657004485E-01
  0.404178355548E-01  0.299809051185E-01  0.220183639940E-01  0.160045058308E-01  0.115096245234E-01
  0.818621744465E-02  0.575635315633E-02  0.400027729330E-02  0.274628673328E-02  0.186186368210E-02
  0.124602838679E-02  0.822842279236E-03  0.535972868541E-03  0.344217695750E-03  0.217876823718E-03
  0.135861022795E-03  0.834251407203E-04  0.504221576308E-04  0.299821496076E-04  0.175308970101E-04
  0.100743290420E-04  0.568664140929E-05  0.315113064397E-05  0.171307756421E-05  0.913068712148E-06
  0.476813945833E-06  0.243784106641E-06  0.121942369105E-06  0.596306700054E-07  0.284849696915E-07
  0.132816146164E-07  0.603985046624E-08  0.267661505285E-08  0.115496002330E-08  0.484839755984E-09
  0.197833529739E-09  0.783939393057E-10  0.301401837878E-10  0.112325531106E-10  0.405374220406E-11
  0.141527670496E-11  0.477510029960E-12  0.155529531843E-12  0.488483628986E-13  0.147772973250E-13
  0.430062665686E-14  0.120261393422E-14  0.322720080892E-15
 kinetic energy-density
  0.126644644886E+06  0.126607756267E+06  0.126587351534E+06  0.126583871684E+06  0.126597769739E+06
  0.126629511661E+06  0.126679576702E+06  0.126748458823E+06  0.126836667337E+06  0.126944728053E+06
  0.127073184506E+06  0.127222599076E+06  0.127393554267E+06  0.127586654069E+06  0.127802525483E+06
  0.128041819575E+06  0.128305213571E+06  0.128593411903E+06  0.128907148143E+06  0.129247186720E+06
  0.129614323587E+06  0.130009389836E+06  0.130433251805E+06  0.130886813151E+06  0.131371016968E+06
  0.131886847494E+06  0.132435331186E+06  0.133017540112E+06  0.133634591925E+06  0.134287652961E+06
  0.134977939736E+06  0.135706720809E+06  0.136475318993E+06  0.137285113273E+06  0.138137540742E+06
  0.139034099157E+06  0.139976348945E+06  0.140965915769E+06  0.142004492702E+06  0.143093843110E+06
  0.144235803248E+06  0.145432285130E+06  0.146685279414E+06  0.147996858662E+06  0.149369180494E+06
  0.150804491080E+06  0.152305128693E+06  0.153873527451E+06  0.155512221235E+06  0.157223847754E+06
  0.159011152784E+06  0.160876994579E+06  0.162824348446E+06  0.164856311485E+06  0.166976107499E+06
  0.169187092063E+06  0.171492757750E+06  0.173896739525E+06  0.176402820268E+06  0.179014936468E+06
  0.181737183982E+06  0.184573824107E+06  0.187529289487E+06  0.190608190338E+06  0.193815320757E+06
  0.197155664904E+06  0.200634403554E+06  0.204256920370E+06  0.208028808426E+06  0.211955876574E+06
  0.216044155720E+06  0.220299905332E+06  0.224729619325E+06  0.229340032244E+06  0.234138124944E+06
  0.239131130230E+06  0.244326537866E+06  0.249732099662E+06  0.255355833509E+06  0.261206027480E+06
  0.267291242945E+06  0.273620316991E+06  0.280202364213E+06  0.287046777484E+06  0.294163227583E+06
  0.301561661854E+06  0.309252301418E+06  0.317245636949E+06  0.325552422932E+06  0.334183669932E+06
  0.343150635109E+06  0.352464810410E+06  0.362137908481E+06  0.372181845810E+06  0.382608723375E+06
  0.393430803714E+06  0.404660485130E+06  0.416310272014E+06  0.428392741288E+06  0.440920504731E+06
  0.453906166788E+06  0.467362277506E+06  0.481301280356E+06  0.495735454701E+06  0.510676852388E+06
  0.526137227867E+06  0.542127962919E+06  0.558659982911E+06  0.575743668032E+06  0.593388755017E+06
  0.611604232980E+06  0.630398230090E+06  0.649777893015E+06  0.669749257206E+06  0.690317109396E+06
  0.711484841222E+06  0.733254294439E+06  0.755625597561E+06  0.778596994156E+06  0.802164663392E+06
  0.826322532356E+06  0.851062081697E+06  0.876372144361E+06  0.902238698694E+06  0.928644656815E+06
  0.955569649148E+06  0.982989806837E+06  0.101087754340E+07  0.103920133728E+07  0.106792551777E+07
  0.109701005613E+07  0.112641036479E+07  0.115607710725E+07  0.118595602198E+07  0.121598776353E+07
  0.124610776466E+07  0.127624612326E+07  0.130632751847E+07  0.133627116006E+07  0.136599077614E+07
  0.139539464357E+07  0.142438566627E+07  0.145286150616E+07  0.148071477203E+07  0.150783327098E+07
  0.153410032731E+07  0.155939517342E+07  0.158359341671E+07  0.160656758640E+07  0.162818776304E+07
  0.164832229327E+07  0.166683859105E+07  0.168360402581E+07  0.169848689669E+07  0.171135749045E+07
  0.172208921959E+07  0.173055983490E+07  0.173665270549E+07  0.174025815685E+07  0.174127485585E+07
  0.173961122927E+07  0.173518690028E+07  0.172793412541E+07  0.171779921199E+07  0.170474389468E+07
  0.168874664730E+07  0.166980390510E+07  0.164793117122E+07  0.162316398026E+07  0.159555869172E+07
  0.156519308620E+07  0.153216673837E+07  0.149660114210E+07  0.145863956574E+07  0.141844661858E+07
  0.137620751312E+07  0.133212701233E+07  0.128642805579E+07  0.123935006353E+07  0.119114692181E+07
  0.114208466034E+07  0.109243883600E+07  0.104249164643E+07  0.992528796989E+06  0.942836172675E+06
  0.893696356152E+06  0.845385053138E+06  0.798167503167E+06  0.752294948108E+06  0.708001235920E+06
  0.665499631483E+06  0.624979898822E+06  0.586605711221E+06  0.550512439032E+06  0.516805359599E+06
  0.485558329063E+06  0.456812950920E+06  0.430578270320E+06  0.406831015670E+06  0.385516399820E+06
  0.366549481943E+06  0.349817078759E+06  0.335180200462E+06  0.322476973350E+06  0.311525998326E+06
  0.302130082642E+06  0.294080271927E+06  0.287160100869E+06  0.281149974112E+06  0.275831584069E+06
  0.270992269320E+06  0.266429216335E+06  0.261953408117E+06  0.257393226321E+06  0.252597618376E+06
  0.247438748207E+06  0.241814058639E+06  0.235647685490E+06  0.228891178139E+06  0.221523498794E+06
  0.213550292919E+06  0.205002445152E+06  0.195933957590E+06  0.186419208529E+06  0.176549668057E+06
  0.166430162815E+06  0.156174797705E+06  0.145902661869E+06  0.135733470046E+06  0.125783313798E+06
  0.116160712118E+06  0.106963121688E+06  0.982740693326E+05  0.901609597080E+05  0.826736017904E+05
  0.758434317015E+05  0.696834133747E+05  0.641886026280E+05  0.593373504347E+05  0.550930932616E+05
  0.514066449562E+05  0.482188758535E+05  0.454636441143E+05  0.430708330821E+05  0.409693477212E+05
  0.390899327154E+05  0.373676931438E+05  0.357442228180E+05  0.341692733071E+05  0.326019250686E+05
  0.310112496576E+05  0.293764762836E+05  0.276866964937E+05  0.259401566676E+05  0.241432000359E+05
  0.223089293022E+05  0.204556694695E+05  0.186053199437E+05  0.167816948169E+05  0.150089552576E+05
  0.133102295886E+05  0.117064754426E+05  0.102155706474E+05  0.885156801234E+04  0.762407816610E+04
  0.653788649210E+04  0.559300336850E+04  0.478522174756E+04  0.410694046700E+04  0.354793774995E+04
  0.309602863597E+04  0.273770279817E+04  0.245877388890E+04  0.224500779295E+04  0.208268907124E+04
  0.195909804021E+04  0.186288175590E+04  0.178430940848E+04  0.171540985905E+04  0.164999739989E+04
  0.158359962053E+04  0.151330699509E+04  0.143756681917E+04  0.135594430006E+04  0.126887184790E+04
  0.117740425206E+04  0.108299337639E+04  0.987291752880E+03  0.891990399630E+03  0.798692758851E+03
  0.708823910438E+03  0.623572269915E+03  0.543859626338E+03  0.470334718903E+03  0.403385225449E+03
  0.343163000481E+03  0.289617630239E+03  0.242533853483E+03  0.201569202045E+03  0.166289351433E+03
  0.136199925157E+03  0.110774451748E+03  0.894784855381E+02  0.717896363283E+02  0.572130817424E+02
  0.452922213344E+02  0.356147671067E+02  0.278150448778E+02  0.215735219606E+02  0.166145108645E+02
  0.127027937606E+02  0.963969778814E+01  0.725898021557E+01  0.542276067819E+01  0.401765269330E+01
  0.295118633700E+01  0.214857097819E+01  0.154981617337E+01  0.110720816440E+01  0.783125465060E+00
  0.548169031351E+00  0.379578172866E+00  0.259901774727E+00  0.175894568806E+00  0.117609406481E+00
  0.776583365207E-01  0.506174641513E-01  0.325529051436E-01  0.206475441029E-01  0.129107011642E-01
  0.795514214442E-02  0.482809172286E-02  0.288497466599E-02  0.169648901571E-02  0.981290780547E-03
  0.558040598289E-03  0.311835364150E-03  0.171131844852E-03  0.921763741957E-04  0.486980628810E-04
  0.252179562342E-04  0.127909017995E-04  0.634977503832E-05  0.308277783244E-05  0.146252658031E-05
  0.677463423810E-06  0.306143231980E-06  0.134849832266E-06  0.578478870362E-07  0.241464999368E-07
  0.979855105343E-08  0.386201588385E-08  0.147708453667E-08  0.547671555025E-09  0.196667087955E-09
  0.683282911440E-10  0.229442578232E-10  0.743849007232E-11  0.232568141165E-11  0.700440757085E-12
  0.202970252722E-12  0.565196433265E-13  0.151049810806E-13
 mkinetic energy-density pseudized
  0.335903198528E-05  0.358103846475E-05  0.381771788473E-05  0.407004001500E-05  0.433903871978E-05
  0.462581619383E-05  0.493154747861E-05  0.525748527687E-05  0.560496508549E-05  0.597541066753E-05
  0.637033988595E-05  0.679137092292E-05  0.724022891011E-05  0.771875299730E-05  0.822890388803E-05
  0.877277187345E-05  0.935258539704E-05  0.997072018541E-05  0.106297089826E-04  0.113322519279E-04
  0.120812276190E-04  0.128797049070E-04  0.137309554710E-04  0.146384672227E-04  0.156059585986E-04
  0.166373937952E-04  0.177369990124E-04  0.189092797695E-04  0.201590393664E-04  0.214913985646E-04
  0.229118165685E-04  0.244261133947E-04  0.260404937181E-04  0.277615722956E-04  0.295964010686E-04
  0.315524980584E-04  0.336378781697E-04  0.358610860314E-04  0.382312310069E-04  0.407580245189E-04
  0.434518198407E-04  0.463236545178E-04  0.493852955930E-04  0.526492878203E-04  0.561290050658E-04
  0.598387051056E-04  0.637935880453E-04  0.680098586007E-04  0.725047924947E-04  0.772968072428E-04
  0.824055376163E-04  0.878519160936E-04  0.936582586286E-04  0.998483560875E-04  0.106447571729E-03
  0.113482945126E-03  0.120983302960E-03  0.128979377130E-03  0.137503930677E-03  0.146591892023E-03
  0.156280498087E-03  0.166609446860E-03  0.177621060056E-03  0.189360456527E-03  0.201875737125E-03
  0.215218181792E-03  0.229442459669E-03  0.244606853098E-03  0.260773496420E-03  0.278008630566E-03
  0.296382874463E-03  0.315971514389E-03  0.336854812441E-03  0.359118335396E-03  0.382853305307E-03
  0.408156973267E-03  0.435133017877E-03  0.463891970048E-03  0.494551665880E-03  0.527237729471E-03
  0.562084087632E-03  0.599233518624E-03  0.638838237158E-03  0.681060518058E-03  0.726073361141E-03
  0.774061200040E-03  0.825220657867E-03  0.879761352824E-03  0.937906757051E-03  0.999895112234E-03
  0.106598040572E-02  0.113643341116E-02  0.121154279787E-02  0.129161631361E-02  0.137698204540E-02
  0.146798976377E-02  0.156501235574E-02  0.166844735264E-02  0.177871855872E-02  0.189627778756E-02
  0.202160671308E-02  0.215521884296E-02  0.229766162245E-02  0.244951867717E-02  0.261141220417E-02
  0.278400552095E-02  0.296800578292E-02  0.316416688044E-02  0.337329252732E-02  0.359623955328E-02
  0.383392141413E-02  0.408731193373E-02  0.435744929330E-02  0.464544028424E-02  0.495246484198E-02
  0.527978087933E-02  0.562872943924E-02  0.600074018788E-02  0.639733727069E-02  0.682014555524E-02
  0.727089728657E-02  0.775143918205E-02  0.826373999503E-02  0.880989857797E-02  0.939215247826E-02
  0.100128871017E-01  0.106746454811E-01  0.113801386904E-01  0.121322569459E-01  0.129340814411E-01
  0.137888969627E-01  0.147002053401E-01  0.156717397817E-01  0.167074801591E-01  0.178116692995E-01
  0.189888303535E-01  0.202437853092E-01  0.215816747286E-01  0.230079787861E-01  0.245285396949E-01
  0.261495856137E-01  0.278777561300E-01  0.297201294243E-01  0.316842512258E-01  0.337781656782E-01
  0.360104482392E-01  0.383902407501E-01  0.409272888164E-01  0.436319816510E-01  0.465153945438E-01
  0.495893341281E-01  0.528663866276E-01  0.563599692814E-01  0.600843851530E-01  0.640548815463E-01
  0.682877122650E-01  0.728002039666E-01  0.776108268786E-01  0.827392701627E-01  0.882065222307E-01
  0.940349563344E-01  0.100248421774E+00  0.106872341093E+00  0.113933813643E+00  0.121461725944E+00
  0.129486869267E+00  0.138042064924E+00  0.147162297748E+00  0.156884858305E+00  0.167249494402E+00
  0.178298572481E+00  0.190077249546E+00  0.202633656298E+00  0.216019092194E+00  0.230288233197E+00
  0.245499353025E+00  0.261714558770E+00  0.279000041781E+00  0.297426344808E+00  0.317068646405E+00
  0.338007063701E+00  0.360326974698E+00  0.384119361291E+00  0.409481174338E+00  0.436515722131E+00
  0.465333083709E+00  0.496050548574E+00  0.528793084386E+00  0.563693834380E+00  0.600894646280E+00
  0.640546634616E+00  0.682810778443E+00  0.727858556550E+00  0.775872622379E+00  0.827047520952E+00
  0.881590450254E+00  0.939722069581E+00  0.100167735753E+01  0.106770652240E+01  0.113807596782E+01
  0.121306931674E+01  0.129298849668E+01  0.137815488963E+01  0.146891054981E+01  0.156561949264E+01
  0.166866905850E+01  0.177847135468E+01  0.189546477921E+01  0.202011563003E+01  0.215291980322E+01
  0.229440458376E+01  0.244513053225E+01  0.260569347110E+01  0.277672657316E+01  0.295890255590E+01
  0.315293598365E+01  0.335958568015E+01  0.357965725313E+01  0.381400573205E+01  0.406353831926E+01
  0.432921725412E+01  0.461206278837E+01  0.491315626984E+01  0.523364332996E+01  0.557473716902E+01
  0.593772193059E+01  0.632395615451E+01  0.673487629473E+01  0.717200028517E+01  0.763693113303E+01
  0.813136051440E+01  0.865707234239E+01  0.921594627213E+01  0.980996110051E+01  0.104411980113E+02
  0.111118436079E+02  0.118241926666E+02  0.125806505318E+02  0.133837350654E+02  0.142360780438E+02
  0.151404258882E+02  0.160996395892E+02  0.171166936754E+02  0.181946740489E+02  0.193367744921E+02
  0.205462916226E+02  0.218266180459E+02  0.231812334268E+02  0.246136931653E+02  0.261276143300E+02
  0.277266584641E+02  0.294145108366E+02  0.311948556726E+02  0.330713468515E+02  0.350475735166E+02
  0.371270199950E+02  0.393130193838E+02  0.416087001145E+02  0.440169247712E+02  0.465402204054E+02
  0.491806995701E+02  0.519399712828E+02  0.548190411366E+02  0.578181998079E+02  0.609368992671E+02
  0.641736160904E+02  0.675257014133E+02  0.709892172553E+02  0.745587592071E+02  0.782272658108E+02
  0.819858153964E+02  0.858234116829E+02  0.897267601286E+02  0.936800378329E+02  0.976646607861E+02
  0.101659053435E+03  0.105638426914E+03  0.109574573890E+03  0.113435689787E+03  0.117186232211E+03
  0.120786832657E+03  0.124194277016E+03  0.127361573978E+03  0.130238133041E+03  0.132770076331E+03
  0.134900710748E+03  0.136571188634E+03  0.137721386158E+03  0.138291028236E+03  0.138221086820E+03
  0.137455474912E+03  0.135943051207E+03  0.133639938755E+03  0.130512144652E+03  0.126538445474E+03
  0.121713473861E+03  0.116050904519E+03  0.109586592139E+03  0.102381459166E+03  0.945238684047E+02
  0.861311456837E+02  0.773498443445E+02  0.683542712777E+02  0.593427314925E+02  0.505309059571E+02
  0.421417708088E+02  0.343915145167E+02  0.274710371794E+02  0.215228507714E+02  0.166135712424E+02
  0.127027937606E+02  0.963969778814E+01  0.725898021557E+01  0.542276067819E+01  0.401765269330E+01
  0.295118633700E+01  0.214857097819E+01  0.154981617337E+01  0.110720816440E+01  0.783125465060E+00
  0.548169031351E+00  0.379578172866E+00  0.259901774727E+00  0.175894568806E+00  0.117609406481E+00
  0.776583365207E-01  0.506174641513E-01  0.325529051436E-01  0.206475441029E-01  0.129107011642E-01
  0.795514214442E-02  0.482809172286E-02  0.288497466599E-02  0.169648901571E-02  0.981290780547E-03
  0.558040598289E-03  0.311835364150E-03  0.171131844852E-03  0.921763741957E-04  0.486980628810E-04
  0.252179562342E-04  0.127909017995E-04  0.634977503832E-05  0.308277783244E-05  0.146252658031E-05
  0.677463423810E-06  0.306143231980E-06  0.134849832266E-06  0.578478870362E-07  0.241464999368E-07
  0.979855105343E-08  0.386201588385E-08  0.147708453667E-08  0.547671555025E-09  0.196667087955E-09
  0.683282911440E-10  0.229442578232E-10  0.743849007232E-11  0.232568141165E-11  0.700440757085E-12
  0.202970252722E-12  0.565196433265E-13  0.151049810806E-13
 local pseudopotential core
 -0.182931178359E+03 -0.182931999765E+03 -0.182932795301E+03 -0.182933565781E+03 -0.182934311996E+03
 -0.182935034707E+03 -0.182935734657E+03 -0.182936412561E+03 -0.182937069114E+03 -0.182937704988E+03
 -0.182938320835E+03 -0.182938917284E+03 -0.182939494947E+03 -0.182940054414E+03 -0.182940596260E+03
 -0.182941121039E+03 -0.182941629287E+03 -0.182942121526E+03 -0.182942598259E+03 -0.182943059975E+03
 -0.182943507147E+03 -0.182943940231E+03 -0.182944359672E+03 -0.182944765899E+03 -0.182945159327E+03
 -0.182945540360E+03 -0.182945909387E+03 -0.182946266787E+03 -0.182946612925E+03 -0.182946948155E+03
 -0.182947272821E+03 -0.182947587254E+03 -0.182947891777E+03 -0.182948186701E+03 -0.182948472327E+03
 -0.182948748949E+03 -0.182949016848E+03 -0.182949276300E+03 -0.182949527568E+03 -0.182949770911E+03
 -0.182950006577E+03 -0.182950234807E+03 -0.182950455834E+03 -0.182950669883E+03 -0.182950877175E+03
 -0.182951077920E+03 -0.182951272323E+03 -0.182951460583E+03 -0.182951642891E+03 -0.182951819435E+03
 -0.182951990393E+03 -0.182952155940E+03 -0.182952316245E+03 -0.182952471471E+03 -0.182952621775E+03
 -0.182952767312E+03 -0.182952908227E+03 -0.182953044665E+03 -0.182953176765E+03 -0.182953304658E+03
 -0.182953428477E+03 -0.182953548344E+03 -0.182953664383E+03 -0.182953776708E+03 -0.182953885435E+03
 -0.182953990671E+03 -0.182954092522E+03 -0.182954191091E+03 -0.182954286476E+03 -0.182954378772E+03
 -0.182954468070E+03 -0.182954554459E+03 -0.182954638024E+03 -0.182954718847E+03 -0.182954797007E+03
 -0.182954872581E+03 -0.182954945641E+03 -0.182955016258E+03 -0.182955084500E+03 -0.182955150431E+03
 -0.182955214113E+03 -0.182955275606E+03 -0.182955334966E+03 -0.182955392249E+03 -0.182955447504E+03
 -0.182955500783E+03 -0.182955552130E+03 -0.182955601591E+03 -0.182955649206E+03 -0.182955695016E+03
 -0.182955739056E+03 -0.182955781360E+03 -0.182955821961E+03 -0.182955860888E+03 -0.182955898166E+03
 -0.182955933821E+03 -0.182955967873E+03 -0.182956000341E+03 -0.182956031241E+03 -0.182956060587E+03
 -0.182956088389E+03 -0.182956114655E+03 -0.182956139389E+03 -0.182956162594E+03 -0.182956184267E+03
 -0.182956204405E+03 -0.182956222998E+03 -0.182956240036E+03 -0.182956255504E+03 -0.182956269382E+03
 -0.182956281647E+03 -0.182956292274E+03 -0.182956301230E+03 -0.182956308481E+03 -0.182956313985E+03
 -0.182956317697E+03 -0.182956319567E+03 -0.182956319539E+03 -0.182956317550E+03 -0.182956313534E+03
 -0.182956307415E+03 -0.182956299113E+03 -0.182956288540E+03 -0.182956275599E+03 -0.182956260186E+03
 -0.182956242190E+03 -0.182956221488E+03 -0.182956197950E+03 -0.182956171434E+03 -0.182956141788E+03
 -0.182956108849E+03 -0.182956072441E+03 -0.182956032375E+03 -0.182955988450E+03 -0.182955940448E+03
 -0.182955888136E+03 -0.182955831266E+03 -0.182955769571E+03 -0.182955702766E+03 -0.182955630545E+03
 -0.182955552581E+03 -0.182955468527E+03 -0.182955378008E+03 -0.182955280625E+03 -0.182955175954E+03
 -0.182955063539E+03 -0.182954942893E+03 -0.182954813499E+03 -0.182954674802E+03 -0.182954526210E+03
 -0.182954367093E+03 -0.182954196776E+03 -0.182954014541E+03 -0.182953819621E+03 -0.182953611197E+03
 -0.182953388395E+03 -0.182953150284E+03 -0.182952895869E+03 -0.182952624091E+03 -0.182952333819E+03
 -0.182952023845E+03 -0.182951692884E+03 -0.182951339562E+03 -0.182950962417E+03 -0.182950559886E+03
 -0.182950130306E+03 -0.182949671901E+03 -0.182949182776E+03 -0.182948660914E+03 -0.182948104160E+03
 -0.182947510218E+03 -0.182946876639E+03 -0.182946200813E+03 -0.182945479953E+03 -0.182944711091E+03
 -0.182943891059E+03 -0.182943016480E+03 -0.182942083753E+03 -0.182941089038E+03 -0.182940028239E+03
 -0.182938896989E+03 -0.182937690630E+03 -0.182936404195E+03 -0.182935032388E+03 -0.182933569558E+03
 -0.182932009682E+03 -0.182930346334E+03 -0.182928572662E+03 -0.182926681356E+03 -0.182924664622E+03
 -0.182922514146E+03 -0.182920221059E+03 -0.182917775901E+03 -0.182915168583E+03 -0.182912388342E+03
 -0.182909423696E+03 -0.182906262395E+03 -0.182902891372E+03 -0.182899296685E+03 -0.182895463460E+03
 -0.182891375824E+03 -0.182887016842E+03 -0.182882368441E+03 -0.182877411334E+03 -0.182872124938E+03
 -0.182866487284E+03 -0.182860474921E+03 -0.182854062817E+03 -0.182847224248E+03 -0.182839930680E+03
 -0.182832151650E+03 -0.182823854621E+03 -0.182815004848E+03 -0.182805565219E+03 -0.182795496089E+03
 -0.182784755101E+03 -0.182773296999E+03 -0.182761073417E+03 -0.182748032659E+03 -0.182734119463E+03
 -0.182719274744E+03 -0.182703435315E+03 -0.182686533596E+03 -0.182668497286E+03 -0.182649249021E+03
 -0.182628706003E+03 -0.182606779590E+03 -0.182583374868E+03 -0.182558390172E+03 -0.182531716582E+03
 -0.182503237367E+03 -0.182472827385E+03 -0.182440352437E+03 -0.182405668558E+03 -0.182368621250E+03
 -0.182329044653E+03 -0.182286760633E+03 -0.182241577796E+03 -0.182193290413E+03 -0.182141677239E+03
 -0.182086500236E+03 -0.182027503168E+03 -0.181964410066E+03 -0.181896923549E+03 -0.181824722982E+03
 -0.181747462459E+03 -0.181664768585E+03 -0.181576238045E+03 -0.181481434919E+03 -0.181379887745E+03
 -0.181271086270E+03 -0.181154477877E+03 -0.181029463639E+03 -0.180895393971E+03 -0.180751563826E+03
 -0.180597207381E+03 -0.180431492171E+03 -0.180253512599E+03 -0.180062282751E+03 -0.179856728446E+03
 -0.179635678440E+03 -0.179397854675E+03 -0.179141861494E+03 -0.178866173694E+03 -0.178569123301E+03
 -0.178248884939E+03 -0.177903459648E+03 -0.177530656997E+03 -0.177128075346E+03 -0.176693080079E+03
 -0.176222779633E+03 -0.175713999183E+03 -0.175163251789E+03 -0.174566706886E+03 -0.173920155995E+03
 -0.173218975589E+03 -0.172458087137E+03 -0.171631914434E+03 -0.170734338493E+03 -0.169758650499E+03
 -0.168697503617E+03 -0.167542864858E+03 -0.166285968782E+03 -0.164917275554E+03 -0.163426436909E+03
 -0.161802274901E+03 -0.160032780074E+03 -0.158105138024E+03 -0.156005796214E+03 -0.153720586684E+03
 -0.151234924863E+03 -0.148534110243E+03 -0.145603761019E+03 -0.142430421605E+03 -0.139002388404E+03
 -0.135310803742E+03 -0.131351067868E+03 -0.127124610130E+03 -0.122641036879E+03 -0.117920627318E+03
 -0.112997070492E+03 -0.107920219508E+03 -0.102758482067E+03 -0.976002834439E+02 -0.925538679020E+02
 -0.877446175122E+02 -0.833091612726E+02 -0.793859191110E+02 -0.761024162638E+02 -0.735606434111E+02
 -0.718236939002E+02 -0.704138130311E+02 -0.681752108234E+02 -0.660141349152E+02 -0.639248052458E+02
 -0.619040627955E+02 -0.599490480223E+02 -0.580571520603E+02 -0.562259756435E+02 -0.544532961954E+02
 -0.527370384880E+02 -0.510752544834E+02 -0.494661025032E+02 -0.479078347236E+02 -0.463987834723E+02
 -0.449373533004E+02 -0.435220125928E+02 -0.421512879867E+02 -0.408237595424E+02 -0.395380569281E+02
 -0.382928563283E+02 -0.370868778855E+02 -0.359188835895E+02 -0.347876754236E+02 -0.336920937892E+02
 -0.326310160381E+02 -0.316033551769E+02 -0.306080586350E+02 -0.296441071159E+02 -0.287105134911E+02
 -0.278063217492E+02 -0.269306059992E+02 -0.260824695017E+02 -0.252610437418E+02 -0.244654875370E+02
 -0.236949861801E+02 -0.229487506062E+02 -0.222260165920E+02 -0.215260439769E+02 -0.208481159089E+02
 -0.201915381129E+02 -0.195556381813E+02 -0.189397648859E+02 -0.183432875110E+02 -0.177655952074E+02
 -0.172060963657E+02 -0.166642180106E+02 -0.161394052132E+02 -0.156311205222E+02 -0.151388434133E+02
 -0.146620697558E+02 -0.142003112960E+02 -0.137530951572E+02
 pspotential valence only
 -0.526329372116E+02 -0.526337586340E+02 -0.526345541876E+02 -0.526353246869E+02 -0.526360709212E+02
 -0.526367936542E+02 -0.526374936266E+02 -0.526381715554E+02 -0.526388281343E+02 -0.526394640359E+02
 -0.526400799118E+02 -0.526406763923E+02 -0.526412540884E+02 -0.526418135917E+02 -0.526423554755E+02
 -0.526428802945E+02 -0.526433885862E+02 -0.526438808712E+02 -0.526443576537E+02 -0.526448194219E+02
 -0.526452666490E+02 -0.526456997927E+02 -0.526461192970E+02 -0.526465255914E+02 -0.526469190919E+02
 -0.526473002018E+02 -0.526476693112E+02 -0.526480267983E+02 -0.526483730291E+02 -0.526487083586E+02
 -0.526490331302E+02 -0.526493476762E+02 -0.526496523192E+02 -0.526499473712E+02 -0.526502331344E+02
 -0.526505099016E+02 -0.526507779564E+02 -0.526510375735E+02 -0.526512890187E+02 -0.526515325499E+02
 -0.526517684164E+02 -0.526519968600E+02 -0.526522181149E+02 -0.526524324079E+02 -0.526526399585E+02
 -0.526528409797E+02 -0.526530356774E+02 -0.526532242513E+02 -0.526534068948E+02 -0.526535837952E+02
 -0.526537551340E+02 -0.526539210870E+02 -0.526540818244E+02 -0.526542375113E+02 -0.526543883074E+02
 -0.526545343676E+02 -0.526546758419E+02 -0.526548128758E+02 -0.526549456099E+02 -0.526550741808E+02
 -0.526551987207E+02 -0.526553193579E+02 -0.526554362163E+02 -0.526555494166E+02 -0.526556590751E+02
 -0.526557653053E+02 -0.526558682165E+02 -0.526559679151E+02 -0.526560645042E+02 -0.526561580836E+02
 -0.526562487504E+02 -0.526563365985E+02 -0.526564217191E+02 -0.526565042006E+02 -0.526565841291E+02
 -0.526566615878E+02 -0.526567366575E+02 -0.526568094171E+02 -0.526568799426E+02 -0.526569483083E+02
 -0.526570145863E+02 -0.526570788465E+02 -0.526571411573E+02 -0.526572015848E+02 -0.526572601936E+02
 -0.526573170466E+02 -0.526573722050E+02 -0.526574257285E+02 -0.526574776754E+02 -0.526575281025E+02
 -0.526575770653E+02 -0.526576246182E+02 -0.526576708143E+02 -0.526577157057E+02 -0.526577593432E+02
 -0.526578017771E+02 -0.526578430564E+02 -0.526578832297E+02 -0.526579223444E+02 -0.526579604476E+02
 -0.526579975858E+02 -0.526580338049E+02 -0.526580691502E+02 -0.526581036671E+02 -0.526581374005E+02
 -0.526581703950E+02 -0.526582026953E+02 -0.526582343460E+02 -0.526582653920E+02 -0.526582958782E+02
 -0.526583258498E+02 -0.526583553525E+02 -0.526583844324E+02 -0.526584131364E+02 -0.526584415119E+02
 -0.526584696073E+02 -0.526584974720E+02 -0.526585251566E+02 -0.526585527127E+02 -0.526585801935E+02
 -0.526586076538E+02 -0.526586351501E+02 -0.526586627407E+02 -0.526586904863E+02 -0.526587184494E+02
 -0.526587466956E+02 -0.526587752926E+02 -0.526588043115E+02 -0.526588338264E+02 -0.526588639148E+02
 -0.526588946579E+02 -0.526589261412E+02 -0.526589584541E+02 -0.526589916908E+02 -0.526590259507E+02
 -0.526590613382E+02 -0.526590979637E+02 -0.526591359436E+02 -0.526591754011E+02 -0.526592164661E+02
 -0.526592592766E+02 -0.526593039783E+02 -0.526593507257E+02 -0.526593996826E+02 -0.526594510228E+02
 -0.526595049304E+02 -0.526595616012E+02 -0.526596212429E+02 -0.526596840762E+02 -0.526597503355E+02
 -0.526598202700E+02 -0.526598941449E+02 -0.526599722417E+02 -0.526600548602E+02 -0.526601423192E+02
 -0.526602349580E+02 -0.526603331376E+02 -0.526604372423E+02 -0.526605476812E+02 -0.526606648899E+02
 -0.526607893319E+02 -0.526609215013E+02 -0.526610619238E+02 -0.526612111597E+02 -0.526613698055E+02
 -0.526615384967E+02 -0.526617179104E+02 -0.526619087677E+02 -0.526621118371E+02 -0.526623279371E+02
 -0.526625579400E+02 -0.526628027752E+02 -0.526630634329E+02 -0.526633409682E+02 -0.526636365054E+02
 -0.526639512427E+02 -0.526642864566E+02 -0.526646435076E+02 -0.526650238452E+02 -0.526654290143E+02
 -0.526658606610E+02 -0.526663205393E+02 -0.526668105185E+02 -0.526673325904E+02 -0.526678888773E+02
 -0.526684816409E+02 -0.526691132910E+02 -0.526697863953E+02 -0.526705036899E+02 -0.526712680899E+02
 -0.526720827012E+02 -0.526729508330E+02 -0.526738760109E+02 -0.526748619909E+02 -0.526759127742E+02
 -0.526770326233E+02 -0.526782260786E+02 -0.526794979766E+02 -0.526808534684E+02 -0.526822980405E+02
 -0.526838375357E+02 -0.526854781764E+02 -0.526872265882E+02 -0.526890898260E+02 -0.526910754010E+02
 -0.526931913093E+02 -0.526954460631E+02 -0.526978487222E+02 -0.527004089290E+02 -0.527031369442E+02
 -0.527060436857E+02 -0.527091407687E+02 -0.527124405486E+02 -0.527159561666E+02 -0.527197015970E+02
 -0.527236916977E+02 -0.527279422631E+02 -0.527324700799E+02 -0.527372929858E+02 -0.527424299309E+02
 -0.527479010423E+02 -0.527537276917E+02 -0.527599325662E+02 -0.527665397419E+02 -0.527735747611E+02
 -0.527810647122E+02 -0.527890383128E+02 -0.527975259956E+02 -0.528065599974E+02 -0.528161744505E+02
 -0.528264054763E+02 -0.528372912809E+02 -0.528488722531E+02 -0.528611910621E+02 -0.528742927567E+02
 -0.528882248644E+02 -0.529030374879E+02 -0.529187834015E+02 -0.529355181416E+02 -0.529533000947E+02
 -0.529721905768E+02 -0.529922539048E+02 -0.530135574577E+02 -0.530361717228E+02 -0.530601703262E+02
 -0.530856300425E+02 -0.531126307812E+02 -0.531412555430E+02 -0.531715903434E+02 -0.532037240961E+02
 -0.532377484497E+02 -0.532737575708E+02 -0.533118478654E+02 -0.533521176285E+02 -0.533946666116E+02
 -0.534395954978E+02 -0.534870052701E+02 -0.535369964604E+02 -0.535896682632E+02 -0.536451174972E+02
 -0.537034373976E+02 -0.537647162188E+02 -0.538290356277E+02 -0.538964688649E+02 -0.539670786521E+02
 -0.540409148208E+02 -0.541180116393E+02 -0.541983848142E+02 -0.542820281429E+02 -0.543689097956E+02
 -0.544589682090E+02 -0.545521075754E+02 -0.546481929190E+02 -0.547470447572E+02 -0.548484333541E+02
 -0.549520725875E+02 -0.550576134633E+02 -0.551646373328E+02 -0.552726488905E+02 -0.553810690545E+02
 -0.554892278681E+02 -0.555963575919E+02 -0.557015862018E+02 -0.558039315480E+02 -0.559022964820E+02
 -0.559954653055E+02 -0.560821019437E+02 -0.561607502876E+02 -0.562298371834E+02 -0.562876785579E+02
 -0.563324891559E+02 -0.563623963054E+02 -0.563754580059E+02 -0.563696854324E+02 -0.563430696236E+02
 -0.562936116560E+02 -0.562193549395E+02 -0.561184173718E+02 -0.559890199267E+02 -0.558295068087E+02
 -0.556383506664E+02 -0.554141346925E+02 -0.551555021581E+02 -0.548610636841E+02 -0.545292542256E+02
 -0.541581360893E+02 -0.537451512894E+02 -0.532868345652E+02 -0.527785051247E+02 -0.522139725982E+02
 -0.515863384417E+02 -0.508098256401E+02 -0.500445409976E+02 -0.492531499516E+02 -0.484366679430E+02
 -0.475984097277E+02 -0.467417115713E+02 -0.458698779748E+02 -0.449861290549E+02 -0.440935111782E+02
 -0.431947989632E+02 -0.422923922939E+02 -0.413882199453E+02 -0.404836774957E+02 -0.395796168257E+02
 -0.386764085822E+02 -0.377740789655E+02 -0.368725116441E+02 -0.359716711011E+02 -0.350718265654E+02
 -0.341737195508E+02 -0.332786612653E+02 -0.323885471353E+02 -0.315057941122E+02 -0.306332144326E+02
 -0.297738426918E+02 -0.289307334733E+02 -0.281067472533E+02 -0.273043443402E+02 -0.265254093624E+02
 -0.257711294412E+02 -0.250419446041E+02 -0.243375781110E+02 -0.236571395512E+02 -0.229992797453E+02
 -0.223623685725E+02 -0.217446670070E+02 -0.211444715819E+02 -0.205602196390E+02 -0.199905534109E+02
 -0.194343478912E+02 -0.188907109816E+02 -0.183589651041E+02 -0.178386183949E+02 -0.173293317259E+02
 -0.168308858269E+02 -0.163431510869E+02 -0.158660613263E+02 -0.153995919584E+02 -0.149437424178E+02
 -0.144985224443E+02 -0.140639416877E+02 -0.136400020814E+02
 core charge-density (pseudized)
  0.337208014235E-07  0.359494900585E-07  0.383254780688E-07  0.408585008232E-07  0.435589371241E-07
  0.464378517340E-07  0.495070407119E-07  0.527790797466E-07  0.562673756843E-07  0.599862214617E-07
  0.639508546698E-07  0.681775199885E-07  0.726835357474E-07  0.774873648859E-07  0.826086906032E-07
  0.880684970081E-07  0.938891550993E-07  0.100094514428E-06  0.106710000820E-06  0.113762720553E-06
  0.121281571425E-06  0.129297361157E-06  0.137842933626E-06  0.146953303440E-06  0.156665799404E-06
  0.167020217475E-06  0.178058983817E-06  0.189827328642E-06  0.202373471532E-06  0.215748819017E-06
  0.230008175208E-06  0.245209966346E-06  0.261416480203E-06  0.278694121298E-06  0.297113682980E-06
  0.316750637497E-06  0.337685445239E-06  0.360003884411E-06  0.383797402500E-06  0.409163490974E-06
  0.436206084742E-06  0.465035988014E-06  0.495771328310E-06  0.528538040472E-06  0.563470382671E-06
  0.600711486515E-06  0.640413943510E-06  0.682740430290E-06  0.727864375164E-06  0.775970668717E-06
  0.827256421382E-06  0.881931771070E-06  0.940220744190E-06  0.100236217356E-05  0.106861067702E-05
  0.113923770067E-05  0.121453263108E-05  0.129480398106E-05  0.138038065369E-05  0.147161329003E-05
  0.156887570573E-05  0.167256642279E-05  0.178311030237E-05  0.190096028566E-05  0.202659924968E-05
  0.216054198585E-05  0.230333730925E-05  0.245557030731E-05  0.261786473711E-05  0.279088558114E-05
  0.297534177193E-05  0.317198909682E-05  0.338163329465E-05  0.360513335712E-05  0.384340504840E-05
  0.409742465725E-05  0.436823299721E-05  0.465693967114E-05  0.496472761754E-05  0.529285795747E-05
  0.564267516166E-05  0.601561255921E-05  0.641319821030E-05  0.683706116709E-05  0.728893814830E-05
  0.777068065503E-05  0.828426255672E-05  0.883178817859E-05  0.941550092345E-05  0.100377924634E-04
  0.107012125389E-04  0.114084794055E-04  0.121624909710E-04  0.129663366686E-04  0.138233101143E-04
  0.147369226019E-04  0.157109174884E-04  0.167492855309E-04  0.178562812373E-04  0.190364402964E-04
  0.202945981612E-04  0.216359098590E-04  0.230658711118E-04  0.245903408512E-04  0.262155652219E-04
  0.279482031711E-04  0.297953537290E-04  0.317645850914E-04  0.338639656248E-04  0.361020969198E-04
  0.384881490283E-04  0.410318980296E-04  0.437437660779E-04  0.466348640963E-04  0.497170372918E-04
  0.530029136769E-04  0.565059557970E-04  0.602405158757E-04  0.642218946031E-04  0.684664038072E-04
  0.729914332661E-04  0.778155219338E-04  0.829584338701E-04  0.884412391870E-04  0.942864003406E-04
  0.100517864124E-03  0.107161159733E-03  0.114243503315E-03  0.121793909411E-03  0.129843309768E-03
  0.138424679993E-03  0.147573174564E-03  0.157326270765E-03  0.167723922116E-03  0.178808721934E-03
  0.190626077692E-03  0.203224396885E-03  0.216655285160E-03  0.230973757528E-03  0.246238463507E-03
  0.262511927120E-03  0.279860802728E-03  0.298356147740E-03  0.318073713302E-03  0.339094254165E-03
  0.361503858976E-03  0.385394302350E-03  0.410863420141E-03  0.438015509454E-03  0.466961754999E-03
  0.497820683549E-03  0.530718648316E-03  0.565790345221E-03  0.603179363163E-03  0.643038770486E-03
  0.685531740043E-03  0.730832215365E-03  0.779125620644E-03  0.830609617368E-03  0.885494910681E-03
  0.944006108705E-03  0.100638263828E-02  0.107287972078E-02  0.114376941198E-02  0.121934171003E-02
  0.129990573610E-02  0.138579099228E-02  0.147734870184E-02  0.157495323715E-02  0.167900364088E-02
  0.178992524659E-02  0.190817140508E-02  0.203422532324E-02  0.216860202276E-02  0.231185042623E-02
  0.246455557887E-02  0.262734101463E-02  0.280087127555E-02  0.298585459454E-02  0.318304575150E-02
  0.339324911408E-02  0.361732187443E-02  0.385617749442E-02  0.411078937220E-02  0.438219474407E-02
  0.467149883599E-02  0.497987928032E-02  0.530859081404E-02  0.565897027551E-02  0.603244191801E-02
  0.643052305913E-02  0.685483008604E-02  0.730708483795E-02  0.778912138782E-02  0.830289324675E-02
  0.885048101557E-02  0.943410050909E-02  0.100561113799E-01  0.107190262698E-01  0.114255205173E-01
  0.121784424525E-01  0.129808243101E-01  0.138358937924E-01  0.147470863169E-01  0.157180579824E-01
  0.167526992885E-01  0.178551496443E-01  0.190298127036E-01  0.202813725622E-01  0.216148108546E-01
  0.230354247857E-01  0.245488461348E-01  0.261610612647E-01  0.278784321700E-01  0.297077185953E-01
  0.316561012503E-01  0.337312061460E-01  0.359411300720E-01  0.382944672266E-01  0.408003370057E-01
  0.434684129491E-01  0.463089528278E-01  0.493328298494E-01  0.525515649374E-01  0.559773600286E-01
  0.596231323079E-01  0.635025492781E-01  0.676300645345E-01  0.720209540812E-01  0.766913529895E-01
  0.816582921564E-01  0.869397348716E-01  0.925546128468E-01  0.985228612961E-01  0.104865452585E+00
  0.111604427882E+00  0.118762926155E+00  0.126365209752E+00  0.134436685674E+00  0.143003921544E+00
  0.152094655088E+00  0.161737795815E+00  0.171963417370E+00  0.182802738848E+00  0.194288093122E+00
  0.206452879976E+00  0.219331501594E+00  0.232959277610E+00  0.247372336645E+00  0.262607480870E+00
  0.278702019780E+00  0.295693568951E+00  0.313619809142E+00  0.332518200646E+00  0.352425647368E+00
  0.373378104623E+00  0.395410124224E+00  0.418554329962E+00  0.442840816235E+00  0.468296462197E+00
  0.494944153563E+00  0.522801904106E+00  0.551881868856E+00  0.582189241297E+00  0.613721027370E+00
  0.646464689924E+00  0.680396658588E+00  0.715480701825E+00  0.751666160422E+00  0.788886044897E+00
  0.827055003481E+00  0.866067172572E+00  0.905793928086E+00  0.946081564102E+00  0.986748934795E+00
  0.102758510714E+01  0.106834708531E+01  0.110875768341E+01  0.114850364097E+01  0.118723409605E+01
  0.122455955285E+01  0.126005150534E+01  0.129324290393E+01  0.132362967839E+01  0.135067355616E+01
  0.137380643828E+01  0.139243661423E+01  0.140595710787E+01  0.141375644633E+01  0.141523212697E+01
  0.140980701762E+01  0.139694885658E+01  0.137619291130E+01  0.134716769950E+01  0.130962346431E+01
  0.126346281362E+01  0.120877257565E+01  0.114585547880E+01  0.107525973119E+01  0.997803957367E+00
  0.914594259031E+00  0.827029432428E+00  0.736789643721E+00  0.645803210017E+00  0.556185663179E+00
  0.470145131146E+00  0.389848445320E+00  0.317243506052E+00  0.253835586164E+00  0.200418727773E+00
  0.156770901622E+00  0.121636726743E+00  0.935894453694E-01  0.713875862082E-01  0.539657004485E-01
  0.404178355548E-01  0.299809051185E-01  0.220183639940E-01  0.160045058308E-01  0.115096245234E-01
  0.818621744465E-02  0.575635315633E-02  0.400027729330E-02  0.274628673328E-02  0.186186368210E-02
  0.124602838679E-02  0.822842279236E-03  0.535972868541E-03  0.344217695750E-03  0.217876823718E-03
  0.135861022795E-03  0.834251407203E-04  0.504221576308E-04  0.299821496076E-04  0.175308970101E-04
  0.100743290420E-04  0.568664140929E-05  0.315113064397E-05  0.171307756421E-05  0.913068712148E-06
  0.476813945833E-06  0.243784106641E-06  0.121942369105E-06  0.596306700054E-07  0.284849696915E-07
  0.132816146164E-07  0.603985046624E-08  0.267661505285E-08  0.115496002330E-08  0.484839755984E-09
  0.197833529739E-09  0.783939393057E-10  0.301401837878E-10  0.112325531106E-10  0.405374220406E-11
  0.141527670496E-11  0.477510029960E-12  0.155529531843E-12  0.488483628986E-13  0.147772973250E-13
  0.430062665686E-14  0.120261393422E-14  0.322720080892E-15
 pseudo wavefunction
  0.148511989937E-03  0.153341229327E-03  0.158327503530E-03  0.163475918928E-03  0.168791747948E-03
  0.174280434461E-03  0.179947599362E-03  0.185799046323E-03  0.191840767737E-03  0.198078950852E-03
  0.204519984112E-03  0.211170463699E-03  0.218037200282E-03  0.225127226000E-03  0.232447801657E-03
  0.240006424160E-03  0.247810834199E-03  0.255869024169E-03  0.264189246359E-03  0.272780021403E-03
  0.281650147002E-03  0.290808706937E-03  0.300265080372E-03  0.310028951457E-03  0.320110319246E-03
  0.330519507936E-03  0.341267177443E-03  0.352364334316E-03  0.363822343008E-03  0.375652937516E-03
  0.387868233397E-03  0.400480740176E-03  0.413503374154E-03  0.426949471640E-03  0.440832802605E-03
  0.455167584782E-03  0.469968498232E-03  0.485250700373E-03  0.501029841504E-03  0.517322080829E-03
  0.534144103012E-03  0.551513135257E-03  0.569446964953E-03  0.587963957890E-03  0.607083077064E-03
  0.626823902102E-03  0.647206649307E-03  0.668252192365E-03  0.689982083719E-03  0.712418576643E-03
  0.735584648028E-03  0.759504021914E-03  0.784201193783E-03  0.809701455647E-03  0.836030921946E-03
  0.863216556293E-03  0.891286199086E-03  0.920268596017E-03  0.950193427511E-03  0.981091339121E-03
  0.101299397291E-02  0.104593399985E-02  0.107994515329E-02  0.111506226348E-02  0.115132129328E-02
  0.118875937494E-02  0.122741484814E-02  0.126732729928E-02  0.130853760198E-02  0.135108795895E-02
  0.139502194522E-02  0.144038455274E-02  0.148722223648E-02  0.153558296196E-02  0.158551625442E-02
  0.163707324949E-02  0.169030674558E-02  0.174527125793E-02  0.180202307444E-02  0.186062031332E-02
  0.192112298258E-02  0.198359304150E-02  0.204809446406E-02  0.211469330444E-02  0.218345776468E-02
  0.225445826451E-02  0.232776751342E-02  0.240346058518E-02  0.248161499463E-02  0.256231077713E-02
  0.264563057042E-02  0.273165969930E-02  0.282048626299E-02  0.291220122528E-02  0.300689850770E-02
  0.310467508569E-02  0.320563108786E-02  0.330986989851E-02  0.341749826347E-02  0.352862639939E-02
  0.364336810657E-02  0.376184088546E-02  0.388416605693E-02  0.401046888648E-02  0.414087871245E-02
  0.427552907842E-02  0.441455786992E-02  0.455810745551E-02  0.470632483256E-02  0.485936177763E-02
  0.501737500185E-02  0.518052631128E-02  0.534898277249E-02  0.552291688349E-02  0.570250675029E-02
  0.588793626909E-02  0.607939531443E-02  0.627707993346E-02  0.648119254648E-02  0.669194215397E-02
  0.690954455041E-02  0.713422254495E-02  0.736620618927E-02  0.760573301283E-02  0.785304826572E-02
  0.810840516939E-02  0.837206517552E-02  0.864429823323E-02  0.892538306497E-02  0.921560745135E-02
  0.951526852511E-02  0.982467307470E-02  0.101441378576E-01  0.104739899238E-01  0.108145669497E-01
  0.111662175829E-01  0.115293017977E-01  0.119041912628E-01  0.122912697202E-01  0.126909333767E-01
  0.131035913076E-01  0.135296658740E-01  0.139695931526E-01  0.144238233806E-01  0.148928214136E-01
  0.153770671988E-01  0.158770562636E-01  0.163933002192E-01  0.169263272809E-01  0.174766828045E-01
  0.180449298403E-01  0.186316497045E-01  0.192374425688E-01  0.198629280687E-01  0.205087459311E-01
  0.211755566220E-01  0.218640420146E-01  0.225749060778E-01  0.233088755878E-01  0.240667008605E-01
  0.248491565080E-01  0.256570422182E-01  0.264911835592E-01  0.273524328077E-01  0.282416698043E-01
  0.291598028346E-01  0.301077695373E-01  0.310865378404E-01  0.320971069265E-01  0.331405082260E-01
  0.342178064419E-01  0.353301006050E-01  0.364785251598E-01  0.376642510843E-01  0.388884870416E-01
  0.401524805661E-01  0.414575192838E-01  0.428049321687E-01  0.441960908339E-01  0.456324108609E-01
  0.471153531653E-01  0.486464254009E-01  0.502271834021E-01  0.518592326657E-01  0.535442298727E-01
  0.552838844490E-01  0.570799601678E-01  0.589342767921E-01  0.608487117580E-01  0.628252018994E-01
  0.648657452131E-01  0.669724026647E-01  0.691473000357E-01  0.713926298089E-01  0.737106530945E-01
  0.761037015934E-01  0.785741795975E-01  0.811245660263E-01  0.837574164960E-01  0.864753654212E-01
  0.892811281448E-01  0.921775030945E-01  0.951673739611E-01  0.982537118964E-01  0.101439577724E+00
  0.104728124159E+00  0.108122598032E+00  0.111626342504E+00  0.115242799278E+00  0.118975510779E+00
  0.122828122317E+00  0.126804384192E+00  0.130908153762E+00  0.135143397434E+00  0.139514192570E+00
  0.144024729302E+00  0.148679312220E+00  0.153482361920E+00  0.158438416393E+00  0.163552132214E+00
  0.168828285524E+00  0.174271772745E+00  0.179887611021E+00  0.185680938322E+00  0.191657013184E+00
  0.197821214027E+00  0.204179038001E+00  0.210736099309E+00  0.217498126928E+00  0.224470961673E+00
  0.231660552521E+00  0.239072952105E+00  0.246714311299E+00  0.254590872779E+00  0.262708963460E+00
  0.271074985683E+00  0.279695407023E+00  0.288576748572E+00  0.297725571547E+00  0.307148462050E+00
  0.316852013801E+00  0.326842808634E+00  0.337127394563E+00  0.347712261166E+00  0.358603812051E+00
  0.369808334133E+00  0.381331963432E+00  0.393180647097E+00  0.405360101314E+00  0.417875764768E+00
  0.430732747276E+00  0.443935773219E+00  0.457489119360E+00  0.471396546619E+00  0.485661225381E+00
  0.500285653867E+00  0.515271569121E+00  0.530619850129E+00  0.546330412622E+00  0.562402095088E+00
  0.578832535563E+00  0.595618038769E+00  0.612753433249E+00  0.630231918160E+00  0.648044899489E+00
  0.666181815542E+00  0.684629951680E+00  0.703374244429E+00  0.722397075256E+00  0.741678054562E+00
  0.761193796660E+00  0.780917686866E+00  0.800819642149E+00  0.820865867252E+00  0.841018608652E+00
  0.861235909297E+00  0.881471367664E+00  0.901673905388E+00  0.921787548477E+00  0.941751227926E+00
  0.961498606464E+00  0.980957939053E+00  0.100005197574E+01  0.101869791634E+01  0.103680742736E+01
  0.105428673236E+01  0.107103678736E+01  0.108695355355E+01  0.110192837918E+01  0.111584850215E+01
  0.112859768342E+01  0.114005697941E+01  0.115010565825E+01  0.115862226035E+01  0.116548579747E+01
  0.117057707694E+01  0.117378012729E+01  0.117498368929E+01  0.117408272193E+01  0.117097985480E+01
  0.116558669914E+01  0.115782490764E+01  0.114762684963E+01  0.113493574516E+01  0.111970507906E+01
  0.110189709847E+01  0.108148018633E+01  0.105842490468E+01  0.103269851991E+01  0.100425786446E+01
  0.973040463670E+00  0.938951936762E+00  0.902058776822E+00  0.862765368793E+00  0.821523145341E+00
  0.778780363654E+00  0.734976457704E+00  0.690536809050E+00  0.645868009398E+00  0.601353660223E+00
  0.557350731228E+00  0.514186480637E+00  0.472155926362E+00  0.431519854863E+00  0.392503361166E+00
  0.355294929789E+00  0.320046084299E+00  0.286871645491E+00  0.255850636639E+00  0.227027852585E+00
  0.200416072713E+00  0.175998850794E+00  0.153733770182E+00  0.133556019771E+00  0.115382130141E+00
  0.991137116436E-01  0.846410536493E-01  0.718464725903E-01  0.606073304641E-01  0.507986808296E-01
  0.422955319263E-01  0.349747430607E-01  0.287165882710E-01  0.234060293326E-01  0.189337391377E-01
  0.151969089595E-01  0.120998628037E-01  0.955449259823E-02  0.748052187244E-02  0.580560374160E-02
  0.446526091809E-02  0.340267975035E-02  0.256837536045E-02  0.191974947388E-02  0.142056563876E-02
  0.104036783342E-02  0.753867969395E-03  0.540325782454E-03  0.382941468406E-03  0.268277602456E-03
  0.185722788088E-03  0.127005455179E-03  0.857625253647E-04
 ae wavefunction
  0.404846911485E-02  0.416930989184E-02  0.429372824662E-02  0.442182833693E-02  0.455371723900E-02
  0.468950502228E-02  0.482930482558E-02  0.497323293462E-02  0.512140886107E-02  0.527395542293E-02
  0.543099882636E-02  0.559266874879E-02  0.575909842347E-02  0.593042472521E-02  0.610678825743E-02
  0.628833344042E-02  0.647520860069E-02  0.666756606148E-02  0.686556223421E-02  0.706935771094E-02
  0.727911735763E-02  0.749501040818E-02  0.771721055908E-02  0.794589606470E-02  0.818124983282E-02
  0.842345952061E-02  0.867271763061E-02  0.892922160675E-02  0.919317393006E-02  0.946478221408E-02
  0.974425929957E-02  0.100318233484E-01  0.103276979365E-01  0.106321121450E-01  0.109453006504E-01
  0.112675038124E-01  0.115989677592E-01  0.119399444708E-01  0.122906918591E-01  0.126514738437E-01
  0.130225604256E-01  0.134042277546E-01  0.137967581929E-01  0.142004403737E-01  0.146155692521E-01
  0.150424461515E-01  0.154813788006E-01  0.159326813640E-01  0.163966744630E-01  0.168736851869E-01
  0.173640470938E-01  0.178681002004E-01  0.183861909582E-01  0.189186722171E-01  0.194659031737E-01
  0.200282493042E-01  0.206060822793E-01  0.211997798613E-01  0.218097257807E-01  0.224363095910E-01
  0.230799265010E-01  0.237409771812E-01  0.244198675440E-01  0.251170084949E-01  0.258328156531E-01
  0.265677090386E-01  0.273221127244E-01  0.280964544509E-01  0.288911651997E-01  0.297066787250E-01
  0.305434310382E-01  0.314018598445E-01  0.322824039273E-01  0.331855024766E-01  0.341115943593E-01
  0.350611173271E-01  0.360345071572E-01  0.370321967235E-01  0.380546149929E-01  0.391021859429E-01
  0.401753273949E-01  0.412744497603E-01  0.423999546922E-01  0.435522336393E-01  0.447316662954E-01
  0.459386189394E-01  0.471734426601E-01  0.484364714591E-01  0.497280202268E-01  0.510483825837E-01
  0.523978285808E-01  0.537766022533E-01  0.551849190192E-01  0.566229629164E-01  0.580908836710E-01
  0.595887935893E-01  0.611167642661E-01  0.626748231013E-01  0.642629496183E-01  0.658810715748E-01
  0.675290608604E-01  0.692067291720E-01  0.709138234599E-01  0.726500211383E-01  0.744149250518E-01
  0.762080581929E-01  0.780288581625E-01  0.798766713690E-01  0.817507469606E-01  0.836502304859E-01
  0.855741572796E-01  0.875214455706E-01  0.894908893107E-01  0.914811507244E-01  0.934907525795E-01
  0.955180701829E-01  0.975613231057E-01  0.996185666434E-01  0.101687683022E+00  0.103766372359E+00
  0.105852143398E+00  0.107942304030E+00  0.110033951622E+00  0.112123963187E+00  0.114208985408E+00
  0.116285424569E+00  0.118349436417E+00  0.120396915998E+00  0.122423487539E+00  0.124424494397E+00
  0.126394989172E+00  0.128329724032E+00  0.130223141339E+00  0.132069364657E+00  0.133862190247E+00
  0.135595079142E+00  0.137261149922E+00  0.138853172328E+00  0.140363561827E+00  0.141784375297E+00
  0.143107307996E+00  0.144323691961E+00  0.145424496067E+00  0.146400327903E+00  0.147241437714E+00
  0.147937724619E+00  0.148478745349E+00  0.148853725767E+00  0.149051575442E+00  0.149060905548E+00
  0.148870050396E+00  0.148467092907E+00  0.147839894334E+00  0.146976128575E+00  0.145863321403E+00
  0.144488894959E+00  0.142840217844E+00  0.140904661170E+00  0.138669660890E+00  0.136122786752E+00
  0.133251818194E+00  0.130044827477E+00  0.126490270338E+00  0.122577084411E+00  0.118294795618E+00
  0.113633632706E+00  0.108584650024E+00  0.103139858598E+00  0.972923654578E-01  0.910365211118E-01
  0.843680749406E-01  0.772843381846E-01  0.697843540667E-01  0.618690744498E-01  0.535415422718E-01
  0.448070788285E-01  0.356734747831E-01  0.261511835877E-01  0.162535157860E-01  0.599683246235E-02
 -0.459926410957E-02 -0.155117447607E-01 -0.267139749952E-01 -0.381755463485E-01 -0.498621202522E-01
 -0.617352873580E-01 -0.737524455819E-01 -0.858667005060E-01 -0.980267922154E-01 -0.110177053102E+00
 -0.122257401570E+00 -0.134203376882E+00 -0.145946220547E+00 -0.157413009649E+00 -0.168526847387E+00
 -0.179207115785E+00 -0.189369795173E+00 -0.198927854577E+00 -0.207791716695E+00 -0.215869800660E+00
 -0.223069145240E+00 -0.229296114445E+00 -0.234457186721E+00 -0.238459827941E+00 -0.241213447272E+00
 -0.242630433732E+00 -0.242627269827E+00 -0.241125717046E+00 -0.238054066280E+00 -0.233348444302E+00
 -0.226954165420E+00 -0.218827115259E+00 -0.208935151394E+00 -0.197259503235E+00 -0.183796151313E+00
 -0.168557163860E+00 -0.151571966462E+00 -0.132888518673E+00 -0.112574369784E+00 -0.907175646314E-01
 -0.674273694169E-01 -0.428347870798E-01 -0.170928321556E-01  0.962346358193E-02  0.371173405249E-01
  0.651709169703E-01  0.935461265671E-01  0.121985996913E+00  0.150216275117E+00  0.177947407181E+00
  0.204876884309E+00  0.230691977580E+00  0.255072884764E+00  0.277696299184E+00  0.298239378420E+00
  0.316384055081E+00  0.331821614172E+00  0.344257465781E+00  0.353416051752E+00  0.359045825663E+00
  0.360924235362E+00  0.358862624726E+00  0.352710963096E+00  0.342362308839E+00  0.327756915523E+00
  0.308885892390E+00  0.285794333290E+00  0.258583829830E+00  0.227414285659E+00  0.192504950513E+00
  0.154134596074E+00  0.112640761997E+00  0.684180110398E-01  0.219151480692E-01 -0.263686210310E-01
 -0.758885896199E-01 -0.126060484778E+00 -0.176267394065E+00 -0.225867635412E+00 -0.274203510310E+00
 -0.320610819969E+00 -0.364428837656E+00 -0.405010093215E+00 -0.441729054208E+00 -0.473989138053E+00
 -0.501228895018E+00 -0.522929850219E+00 -0.538627876707E+00 -0.547926301258E+00 -0.550506800912E+00
 -0.546136468553E+00 -0.534672082306E+00 -0.516062792686E+00 -0.490351608754E+00 -0.457675534566E+00
 -0.418264081946E+00 -0.372435987700E+00 -0.320594147927E+00 -0.263218942273E+00 -0.200860209677E+00
 -0.134128163075E+00 -0.636835184936E-01  0.977291111470E-02  0.855109345600E-01  0.162781815146E+00
  0.240829038084E+00  0.318898847250E+00  0.396250396046E+00  0.472165364685E+00  0.545956906042E+00
  0.616977796556E+00  0.684627689071E+00  0.748359391195E+00  0.807684111886E+00  0.862175621884E+00
  0.911473248704E+00  0.955283576899E+00  0.993380697079E+00  0.102560490969E+01  0.105186000955E+01
  0.107210962101E+01  0.108637334170E+01  0.109472344178E+01  0.109728247314E+01  0.109422157178E+01
  0.108575886133E+01  0.107215732413E+01  0.105372176661E+01  0.103079480115E+01  0.100375196886E+01
  0.972996216079E+00  0.938951936762E+00  0.902058776822E+00  0.862765368793E+00  0.821523145341E+00
  0.778780363654E+00  0.734976457704E+00  0.690536809050E+00  0.645868009398E+00  0.601353660223E+00
  0.557350731228E+00  0.514186480637E+00  0.472155926362E+00  0.431519854863E+00  0.392503361166E+00
  0.355294929789E+00  0.320046084299E+00  0.286871645491E+00  0.255850636639E+00  0.227027852585E+00
  0.200416072713E+00  0.175998850794E+00  0.153733770182E+00  0.133556019771E+00  0.115382130141E+00
  0.991137116436E-01  0.846410536493E-01  0.718464725903E-01  0.606073304641E-01  0.507986808296E-01
  0.422955319263E-01  0.349747430607E-01  0.287165882710E-01  0.234060293326E-01  0.189337391377E-01
  0.151969089595E-01  0.120998628037E-01  0.955449259823E-02  0.748052187244E-02  0.580560374160E-02
  0.446526091809E-02  0.340267975035E-02  0.256837536045E-02  0.191974947388E-02  0.142056563876E-02
  0.104036783342E-02  0.753867969395E-03  0.540325782454E-03  0.382941468406E-03  0.268277602456E-03
  0.185722788088E-03  0.127005455179E-03  0.857625253647E-04
 pseudo wavefunction
  0.160464492527E-03  0.165682397481E-03  0.171069975683E-03  0.176632744484E-03  0.182376400645E-03
  0.188306826171E-03  0.194430094335E-03  0.200752475900E-03  0.207280445534E-03  0.214020688448E-03
  0.220980107241E-03  0.228165828962E-03  0.235585212419E-03  0.243245855707E-03  0.251155603993E-03
  0.259322557550E-03  0.267755080048E-03  0.276461807128E-03  0.285451655236E-03  0.294733830760E-03
  0.304317839456E-03  0.314213496186E-03  0.324430934962E-03  0.334980619333E-03  0.345873353093E-03
  0.357120291349E-03  0.368732951947E-03  0.380723227260E-03  0.393103396372E-03  0.405886137654E-03
  0.419084541744E-03  0.432712124953E-03  0.446782843112E-03  0.461311105857E-03  0.476311791389E-03
  0.491800261712E-03  0.507792378362E-03  0.524304518652E-03  0.541353592444E-03  0.558957059466E-03
  0.577132947190E-03  0.595899869295E-03  0.615277044732E-03  0.635284317401E-03  0.655942176473E-03
  0.677271777377E-03  0.699294963459E-03  0.722034288357E-03  0.745513039092E-03  0.769755259920E-03
  0.794785776952E-03  0.820630223579E-03  0.847315066725E-03  0.874867633946E-03  0.903316141418E-03
  0.932689722833E-03  0.963018459232E-03  0.994333409813E-03  0.102666664373E-02  0.106005127295E-02
  0.109452148613E-02  0.113011258368E-02  0.116686101386E-02  0.120480441012E-02  0.124398162967E-02
  0.128443279323E-02  0.132619932613E-02  0.136932400075E-02  0.141385098028E-02  0.145982586401E-02
  0.150729573394E-02  0.155630920306E-02  0.160691646511E-02  0.165916934598E-02  0.171312135678E-02
  0.176882774862E-02  0.182634556923E-02  0.188573372133E-02  0.194705302298E-02  0.201036626984E-02
  0.207573829948E-02  0.214323605777E-02  0.221292866744E-02  0.228488749882E-02  0.235918624299E-02
  0.243590098718E-02  0.251511029268E-02  0.259689527533E-02  0.268133968853E-02  0.276853000900E-02
  0.285855552536E-02  0.295150842950E-02  0.304748391101E-02  0.314658025465E-02  0.324889894093E-02
  0.335454475006E-02  0.346362586919E-02  0.357625400320E-02  0.369254448904E-02  0.381261641383E-02
  0.393659273673E-02  0.406460041487E-02  0.419677053327E-02  0.433323843908E-02  0.447414388005E-02
  0.461963114765E-02  0.476984922471E-02  0.492495193795E-02  0.508509811540E-02  0.525045174895E-02
  0.542118216221E-02  0.559746418376E-02  0.577947832607E-02  0.596741097025E-02  0.616145455668E-02
  0.636180778201E-02  0.656867580238E-02  0.678227044330E-02  0.700281041641E-02  0.723052154314E-02
  0.746563698570E-02  0.770839748557E-02  0.795905160967E-02  0.821785600455E-02  0.848507565878E-02
  0.876098417392E-02  0.904586404412E-02  0.934000694494E-02  0.964371403141E-02  0.995729624574E-02
  0.102810746351E-01  0.106153806794E-01  0.109605566301E-01  0.113169558595E-01  0.116849432218E-01
  0.120648954251E-01  0.124572014163E-01  0.128622627779E-01  0.132804941374E-01  0.137123235903E-01
  0.141581931368E-01  0.146185591318E-01  0.150938927505E-01  0.155846804678E-01  0.160914245541E-01
  0.166146435863E-01  0.171548729753E-01  0.177126655108E-01  0.182885919233E-01  0.188832414635E-01
  0.194972225012E-01  0.201311631423E-01  0.207857118666E-01  0.214615381843E-01  0.221593333149E-01
  0.228798108864E-01  0.236237076577E-01  0.243917842626E-01  0.251848259782E-01  0.260036435172E-01
  0.268490738446E-01  0.277219810206E-01  0.286232570693E-01  0.295538228747E-01  0.305146291045E-01
  0.315066571620E-01  0.325309201681E-01  0.335884639727E-01  0.346803681974E-01  0.358077473097E-01
  0.369717517303E-01  0.381735689727E-01  0.394144248181E-01  0.406955845244E-01  0.420183540717E-01
  0.433840814438E-01  0.447941579476E-01  0.462500195705E-01  0.477531483768E-01  0.493050739435E-01
  0.509073748374E-01  0.525616801322E-01  0.542696709684E-01  0.560330821550E-01  0.578537038140E-01
  0.597333830689E-01  0.616740257763E-01  0.636775983021E-01  0.657461293417E-01  0.678817117847E-01
  0.700865046241E-01  0.723627349092E-01  0.747126997431E-01  0.771387683226E-01  0.796433840209E-01
  0.822290665123E-01  0.848984139364E-01  0.876541051011E-01  0.904989017229E-01  0.934356507006E-01
  0.964672864217E-01  0.995968330969E-01  0.102827407119E+00  0.106162219445E+00  0.109604577987E+00
  0.113157890023E+00  0.116825664604E+00  0.120611514959E+00  0.124519160888E+00  0.128552431136E+00
  0.132715265736E+00  0.137011718299E+00  0.141445958261E+00  0.146022273049E+00  0.150745070164E+00
  0.155618879152E+00  0.160648353455E+00  0.165838272106E+00  0.171193541254E+00  0.176719195480E+00
  0.182420398887E+00  0.188302445911E+00  0.194370761832E+00  0.200630902935E+00  0.207088556271E+00
  0.213749538978E+00  0.220619797093E+00  0.227705403798E+00  0.235012557042E+00  0.242547576441E+00
  0.250316899397E+00  0.258327076333E+00  0.266584764949E+00  0.275096723392E+00  0.283869802220E+00
  0.292910935035E+00  0.302227127639E+00  0.311825445571E+00  0.321712999849E+00  0.331896930741E+00
  0.342384389376E+00  0.353182516977E+00  0.364298421487E+00  0.375739151357E+00  0.387511666215E+00
  0.399622804146E+00  0.412079245275E+00  0.424887471326E+00  0.438053720829E+00  0.451583939588E+00
  0.465483726048E+00  0.479758271140E+00  0.494412292184E+00  0.509449960420E+00  0.524874821699E+00
  0.540689709869E+00  0.556896652394E+00  0.573496767712E+00  0.590490153881E+00  0.607875768039E+00
  0.625651296251E+00  0.643813013350E+00  0.662355632414E+00  0.681272143612E+00  0.700553642226E+00
  0.720189145773E+00  0.740165400297E+00  0.760466676082E+00  0.781074553239E+00  0.801967697879E+00
  0.823121629901E+00  0.844508483770E+00  0.866096764085E+00  0.887851098216E+00  0.909731988857E+00
  0.931695569951E+00  0.953693370173E+00  0.975672088924E+00  0.997573390662E+00  0.101933372433E+01
  0.104088417565E+01  0.106215036101E+01  0.108305237292E+01  0.110350478782E+01  0.112341674813E+01
  0.114269213132E+01  0.116122981929E+01  0.117892408179E+01  0.119566508736E+01  0.121133955469E+01
  0.122583155569E+01  0.123902347905E+01  0.125079715925E+01  0.126103517079E+01  0.126962227987E+01
  0.127644703683E+01  0.128140348026E+01  0.128439290928E+01  0.128532566252E+01  0.128412282159E+01
  0.128071773225E+01  0.127505721019E+01  0.126710226866E+01  0.125682817572E+01  0.124422361942E+01
  0.122928873412E+01  0.121203172269E+01  0.119246380397E+01  0.117059222697E+01  0.114641113259E+01
  0.111989011767E+01  0.109096226342E+01  0.105973063883E+01  0.102670740856E+01  0.992467204690E+00
  0.000000000000E+00  0.000000000000E+00  0.000000000000E+00  0.000000000000E+00  0.000000000000E+00
  0.000000000000E+00  0.000000000000E+00  0.000000000000E+00  0.000000000000E+00  0.000000000000E+00
  0.000000000000E+00  0.000000000000E+00  0.000000000000E+00  0.000000000000E+00  0.000000000000E+00
  0.000000000000E+00  0.000000000000E+00  0.000000000000E+00  0.000000000000E+00  0.000000000000E+00
  0.000000000000E+00  0.000000000000E+00  0.000000000000E+00  0.000000000000E+00  0.000000000000E+00
  0.000000000000E+00  0.000000000000E+00  0.000000000000E+00  0.000000000000E+00  0.000000000000E+00
  0.000000000000E+00  0.000000000000E+00  0.000000000000E+00  0.000000000000E+00  0.000000000000E+00
  0.000000000000E+00  0.000000000000E+00  0.000000000000E+00  0.000000000000E+00  0.000000000000E+00
  0.000000000000E+00  0.000000000000E+00  0.000000000000E+00  0.000000000000E+00  0.000000000000E+00
  0.000000000000E+00  0.000000000000E+00  0.000000000000E+00
 ae wavefunction
  0.440125385739E-02  0.453262473504E-02  0.466788494182E-02  0.480714771179E-02  0.495052945188E-02
  0.509814982304E-02  0.525013182301E-02  0.540660187073E-02  0.556768989216E-02  0.573352940772E-02
  0.590425762122E-02  0.608001551026E-02  0.626094791808E-02  0.644720364684E-02  0.663893555221E-02
  0.683630063933E-02  0.703946015997E-02  0.724857971087E-02  0.746382933325E-02  0.768538361324E-02
  0.791342178330E-02  0.814812782449E-02  0.838969056929E-02  0.863830380525E-02  0.889416637887E-02
  0.915748229987E-02  0.942846084558E-02  0.970731666531E-02  0.999426988443E-02  0.102895462081E-01
  0.105933770240E-01  0.109059995051E-01  0.112276567095E-01  0.115585976810E-01  0.118990775457E-01
  0.122493576086E-01  0.126097054456E-01  0.129803949946E-01  0.133617066419E-01  0.137539273057E-01
  0.141573505147E-01  0.145722764827E-01  0.149990121776E-01  0.154378713839E-01  0.158891747597E-01
  0.163532498858E-01  0.168304313070E-01  0.173210605644E-01  0.178254862185E-01  0.183440638616E-01
  0.188771561188E-01  0.194251326359E-01  0.199883700547E-01  0.205672519730E-01  0.211621688885E-01
  0.217735181252E-01  0.224017037420E-01  0.230471364201E-01  0.237102333287E-01  0.243914179678E-01
  0.250911199855E-01  0.258097749674E-01  0.265478241980E-01  0.273057143901E-01  0.280838973808E-01
  0.288828297916E-01  0.297029726504E-01  0.305447909720E-01  0.314087532950E-01  0.322953311721E-01
  0.332049986102E-01  0.341382314577E-01  0.350955067349E-01  0.360773019046E-01  0.370840940785E-01
  0.381163591557E-01  0.391745708890E-01  0.402591998753E-01  0.413707124639E-01  0.425095695800E-01
  0.436762254568E-01  0.448711262716E-01  0.460947086807E-01  0.473473982468E-01  0.486296077537E-01
  0.499417354013E-01  0.512841628764E-01  0.526572532897E-01  0.540613489757E-01  0.554967691456E-01
  0.569638073880E-01  0.584627290087E-01  0.599937682033E-01  0.615571250529E-01  0.631529623377E-01
  0.647814021576E-01  0.664425223538E-01  0.681363527225E-01  0.698628710113E-01  0.716219986927E-01
  0.734135965029E-01  0.752374597410E-01  0.770933133183E-01  0.789808065518E-01  0.808995076914E-01
  0.828488981778E-01  0.848283666199E-01  0.868372024890E-01  0.888745895220E-01  0.909395988298E-01
  0.930311817067E-01  0.951481621382E-01  0.972892290049E-01  0.994529279825E-01  0.101637653140E+00
  0.103841638238E+00  0.106062947732E+00  0.108299467488E+00  0.110548895227E+00  0.112808730691E+00
  0.115076265578E+00  0.117348573229E+00  0.119622498126E+00  0.121894645191E+00  0.124161368954E+00
  0.126418762599E+00  0.128662646943E+00  0.130888559394E+00  0.133091742939E+00  0.135267135229E+00
  0.137409357824E+00  0.139512705679E+00  0.141571136948E+00  0.143578263217E+00  0.145527340250E+00
  0.147411259375E+00  0.149222539637E+00  0.150953320844E+00  0.152595357667E+00  0.154140014950E+00
  0.155578264405E+00  0.156900682885E+00  0.158097452434E+00  0.159158362340E+00  0.160072813412E+00
  0.160829824738E+00  0.161418043192E+00  0.161825755952E+00  0.162040906343E+00  0.162051113297E+00
  0.161843694760E+00  0.161405695383E+00  0.160723918832E+00  0.159784965094E+00  0.158575273116E+00
  0.157081169177E+00  0.155288921346E+00  0.153184800408E+00  0.150755147626E+00  0.147986449700E+00
  0.144865421268E+00  0.141379095281E+00  0.137514921552E+00  0.133260873742E+00  0.128605565019E+00
  0.123538372568E+00  0.118049571057E+00  0.112130475124E+00  0.105773590838E+00  0.989727760106E-01
  0.917234091194E-01  0.840225664852E-01  0.758692072050E-01  0.672643651881E-01  0.582113474722E-01
  0.487159378085E-01  0.387866042979E-01  0.284347096471E-01  0.176747223832E-01  0.652442713878E-02
 -0.499486810785E-02 -0.168581301661E-01 -0.290364066749E-01 -0.414966427877E-01 -0.542015114516E-01
 -0.671092604942E-01 -0.801735800577E-01 -0.933434943385E-01 -0.106563282061E+00 -0.119772430614E+00
 -0.132905629210E+00 -0.145892806769E+00 -0.158659220384E+00 -0.171125600254E+00 -0.183208356797E+00
 -0.194819855341E+00 -0.205868763392E+00 -0.216260474970E+00 -0.225897616021E+00 -0.234680634368E+00
 -0.242508477088E+00 -0.249279357455E+00 -0.254891612731E+00 -0.259244653020E+00 -0.262240000197E+00
 -0.263782414527E+00 -0.263781105040E+00 -0.262151018002E+00 -0.258814195926E+00 -0.253701197496E+00
 -0.246752566567E+00 -0.237920336063E+00 -0.227169550158E+00 -0.214479785631E+00 -0.199846650793E+00
 -0.183283237982E+00 -0.164821503291E+00 -0.144513545156E+00 -0.122432751586E+00 -0.986747844066E-01
 -0.733583678625E-01 -0.466258485264E-01 -0.186434938123E-01  0.103985020663E-01  0.402863327534E-01
  0.707832381398E-01  0.101630523167E+00  0.132548947277E+00  0.163240490796E+00  0.193390505667E+00
  0.222670264725E+00  0.250739932804E+00  0.277251985456E+00  0.301855086053E+00  0.324198397090E+00
  0.343936262885E+00  0.360733181629E+00  0.374268989275E+00  0.384244188618E+00  0.390385357589E+00
  0.392450559910E+00  0.390234667552E+00  0.383574495541E+00  0.372353647505E+00  0.356506972579E+00
  0.336024537783E+00  0.310955022732E+00  0.281408445266E+00  0.247558127900E+00  0.209641816871E+00
  0.167961869308E+00  0.122884430919E+00  0.748375380928E-01  0.243080955543E-01 -0.281622961952E-01
 -0.819826623697E-01 -0.136519096905E+00 -0.191102281115E+00 -0.245036024332E+00 -0.297606761282E+00
 -0.348093875383E+00 -0.395780514714E+00 -0.439964200874E+00 -0.479966235468E+00 -0.515139288124E+00
 -0.544874077024E+00 -0.568607845901E+00 -0.585836675405E+00 -0.596129678489E+00 -0.599140795957E+00
 -0.594616427376E+00 -0.582400021086E+00 -0.562434943833E+00 -0.534766046096E+00 -0.499539762826E+00
 -0.457002452505E+00 -0.407496787975E+00 -0.351456212792E+00 -0.289397651058E+00 -0.221912755293E+00
 -0.149658005199E+00 -0.733439571615E-01  0.627608286735E-02  0.884177206493E-01  0.172277253071E+00
  0.257043370667E+00  0.341908603714E+00  0.426080343591E+00  0.508791279594E+00  0.589309102329E+00
  0.666945340631E+00  0.741063221348E+00  0.811084470619E+00  0.876494996390E+00  0.936849395473E+00
  0.991774201611E+00  0.104096973632E+01  0.108421039363E+01  0.112134325605E+01  0.115228517634E+01
  0.117701883808E+01  0.119558862334E+01  0.120809711714E+01  0.121470265732E+01  0.121561771860E+01
  0.121110750809E+01  0.120148809842E+01  0.118712370611E+01  0.116842304721E+01  0.114583492773E+01
  0.111984333003E+01  0.109096226342E+01  0.105973063883E+01  0.102670740856E+01  0.992467204690E+00
  0.000000000000E+00  0.000000000000E+00  0.000000000000E+00  0.000000000000E+00  0.000000000000E+00
  0.000000000000E+00  0.000000000000E+00  0.000000000000E+00  0.000000000000E+00  0.000000000000E+00
  0.000000000000E+00  0.000000000000E+00  0.000000000000E+00  0.000000000000E+00  0.000000000000E+00
  0.000000000000E+00  0.000000000000E+00  0.000000000000E+00  0.000000000000E+00  0.000000000000E+00
  0.000000000000E+00  0.000000000000E+00  0.000000000000E+00  0.000000000000E+00  0.000000000000E+00
  0.000000000000E+00  0.000000000000E+00  0.000000000000E+00  0.000000000000E+00  0.000000000000E+00
  0.000000000000E+00  0.000000000000E+00  0.000000000000E+00  0.000000000000E+00  0.000000000000E+00
  0.000000000000E+00  0.000000000000E+00  0.000000000000E+00  0.000000000000E+00  0.000000000000E+00
  0.000000000000E+00  0.000000000000E+00  0.000000000000E+00  0.000000000000E+00  0.000000000000E+00
  0.000000000000E+00  0.000000000000E+00  0.000000000000E+00
 pseudo wavefunction
  0.835100362373E-08  0.890294148304E-08  0.949135823912E-08  0.101186648697E-07  0.107874316999E-07
  0.115003989337E-07  0.122604878817E-07  0.130708129309E-07  0.139346943057E-07  0.148556716722E-07
  0.158375186410E-07  0.168842582304E-07  0.180001793489E-07  0.191898543697E-07  0.204581578650E-07
  0.218102865790E-07  0.232517807214E-07  0.247885466673E-07  0.264268811585E-07  0.281734971034E-07
  0.300355510829E-07  0.320206726729E-07  0.341369957067E-07  0.363931916018E-07  0.387985048906E-07
  0.413627910985E-07  0.440965571264E-07  0.470110043012E-07  0.501180742723E-07  0.534304979411E-07
  0.569618476248E-07  0.607265926674E-07  0.647401587263E-07  0.690189909773E-07  0.735806214972E-07
  0.784437410994E-07  0.836282759177E-07  0.891554690514E-07  0.950479676069E-07  0.101329915492E-06
  0.108027052341E-06  0.115166818984E-06  0.122778469880E-06  0.130893192984E-06  0.139544237536E-06
  0.148767050299E-06  0.158599420795E-06  0.169081636145E-06  0.180256646141E-06  0.192170239228E-06
  0.204871230116E-06  0.218411659795E-06  0.232847008768E-06  0.248236424370E-06  0.264642963126E-06
  0.282133849112E-06  0.300780749400E-06  0.320660067706E-06  0.341853257446E-06  0.364447155480E-06
  0.388534337916E-06  0.414213499433E-06  0.441589857668E-06  0.470775584330E-06  0.501890264817E-06
  0.535061388196E-06  0.570424869578E-06  0.608125607009E-06  0.648318075178E-06  0.691166958348E-06
  0.736847825137E-06  0.785547847882E-06  0.837466569555E-06  0.892816721362E-06  0.951825094380E-06
  0.101473346880E-05  0.108179960459E-05  0.115329829763E-05  0.122952250564E-05  0.131078454853E-05
  0.139741738810E-05  0.148977599226E-05  0.158823878951E-05  0.169320921942E-05  0.180511738572E-05
  0.192442181852E-05  0.205161135309E-05  0.218720713276E-05  0.233176474421E-05  0.248587649385E-05
  0.265017383472E-05  0.282532995369E-05  0.301206252974E-05  0.321113667446E-05  0.342336806691E-05
  0.364962629569E-05  0.389083842184E-05  0.414799277727E-05  0.442214301412E-05  0.471441242183E-05
  0.502599852952E-05  0.535817801244E-05  0.571231192277E-05  0.608985126607E-05  0.649234294624E-05
  0.692143610343E-05  0.737888887072E-05  0.786657557739E-05  0.838649442815E-05  0.894077568993E-05
  0.953169041961E-05  0.101616597686E-04  0.108332649022E-04  0.115492575746E-04  0.123125714025E-04
  0.131263338838E-04  0.139938792108E-04  0.149187619294E-04  0.159047715016E-04  0.169559478297E-04
  0.180765978069E-04  0.192713129610E-04  0.205449882639E-04  0.219028421846E-04  0.233504380659E-04
  0.248937069152E-04  0.265389716993E-04  0.282929732458E-04  0.301628978549E-04  0.321564067356E-04
  0.342816673866E-04  0.365473870504E-04  0.389628483772E-04  0.415379474448E-04  0.442832342897E-04
  0.472099561160E-04  0.503301033574E-04  0.536564587823E-04  0.572026498415E-04  0.609832044737E-04
  0.650136105952E-04  0.693103795192E-04  0.738911135621E-04  0.787745781135E-04  0.839807784653E-04
  0.895310417116E-04  0.954481040565E-04  0.101756203884E-03  0.108481180971E-03  0.115650582246E-03
  0.123293774535E-03  0.131442064733E-03  0.140128827915E-03  0.149389643897E-03  0.159262442796E-03
  0.169787660205E-03  0.181008402585E-03  0.192970623570E-03  0.205723311897E-03  0.219318691712E-03
  0.233812436087E-03  0.249263894599E-03  0.265736335899E-03  0.283297206259E-03  0.302018405144E-03
  0.321976578914E-03  0.343253433866E-03  0.365936069863E-03  0.390117335903E-03  0.415896209075E-03
  0.443378198415E-03  0.472675775288E-03  0.503908832055E-03  0.537205170822E-03  0.572701024286E-03
  0.610541610719E-03  0.650881725342E-03  0.693886370439E-03  0.739731426728E-03  0.788604368667E-03
  0.840705026526E-03  0.896246398263E-03  0.955455514411E-03  0.101857435938E-02  0.108586085284E-02
  0.115758989497E-02  0.123405447976E-02  0.131556688062E-02  0.140245991302E-02  0.149508827890E-02
  0.159382999821E-02  0.169908793301E-02  0.181129140994E-02  0.193089794731E-02  0.205839509337E-02
  0.219430238257E-02  0.233917341733E-02  0.249359808302E-02  0.265820490422E-02  0.283366355118E-02
  0.302068750535E-02  0.322003689393E-02  0.343252150328E-02  0.365900398218E-02  0.390040324598E-02
  0.415769809369E-02  0.443193105015E-02  0.472421244661E-02  0.503572475304E-02  0.536772717665E-02
  0.572156054133E-02  0.609865246349E-02  0.650052284049E-02  0.692878966815E-02  0.738517520471E-02
  0.787151249892E-02  0.838975230061E-02  0.894197037231E-02  0.953037522102E-02  0.101573162695E-01
  0.108252924863E-01  0.115369614947E-01  0.122951491786E-01  0.131028598058E-01  0.139632866862E-01
  0.148798233829E-01  0.158560754920E-01  0.168958730072E-01  0.180032832805E-01  0.191826245909E-01
  0.204384803279E-01  0.217757137925E-01  0.231994836171E-01  0.247152597958E-01  0.263288403141E-01
  0.280463683571E-01  0.298743500679E-01  0.318196728167E-01  0.338896239302E-01  0.360919098155E-01
  0.384346753996E-01  0.409265237844E-01  0.435765359976E-01  0.463942906981E-01  0.493898836641E-01
  0.525739468639E-01  0.559576668753E-01  0.595528023802E-01  0.633717004166E-01  0.674273110246E-01
  0.717331998675E-01  0.763035583486E-01  0.811532106813E-01  0.862976172947E-01  0.917528738803E-01
  0.975357052978E-01  0.103663453465E+00  0.110154058261E+00  0.117026030349E+00  0.124298414751E+00
  0.131990743830E+00  0.140122978274E+00  0.148715434511E+00  0.157788696887E+00  0.167363512796E+00
  0.177460668870E+00  0.188100846203E+00  0.199304452544E+00  0.211091429306E+00  0.223481031243E+00
  0.236491576680E+00  0.250140166255E+00  0.264442368328E+00  0.279411869437E+00  0.295060088591E+00
  0.311395754655E+00  0.328424446782E+00  0.346148098655E+00  0.364564468356E+00  0.383666576981E+00
  0.403442120585E+00  0.423872861885E+00  0.444934010187E+00  0.466593600310E+00  0.488811883910E+00
  0.511540749313E+00  0.534723188933E+00  0.558292836181E+00  0.582173596560E+00  0.606279399942E+00
  0.630514102619E+00  0.654771568283E+00  0.678935955922E+00  0.702882239383E+00  0.726476977076E+00
  0.749579340425E+00  0.772042395128E+00  0.793714609327E+00  0.814441536504E+00  0.834067587651E+00
  0.852437766707E+00  0.869399195632E+00  0.884802201888E+00  0.898500683867E+00  0.910351412888E+00
  0.920211879967E+00  0.927936260366E+00  0.933369060985E+00  0.936336050270E+00  0.936632166338E+00
  0.934006278355E+00  0.928139957137E+00  0.918838625607E+00  0.906231421489E+00  0.890512683812E+00
  0.871895841655E+00  0.850610737073E+00  0.826900907710E+00  0.801020858906E+00  0.773233359588E+00
  0.743806758003E+00  0.713012297791E+00  0.681121408045E+00  0.648402926026E+00  0.615120235818E+00
  0.581528328713E+00  0.547870850895E+00  0.514377207758E+00  0.481259969933E+00  0.448712623393E+00
  0.416907913900E+00  0.385996857973E+00  0.356108472681E+00  0.327350198566E+00  0.299808924934E+00
  0.273552477174E+00  0.248631396136E+00  0.225080830746E+00  0.202922376498E+00  0.182165722426E+00
  0.162810014784E+00  0.144844901491E+00  0.128251278886E+00  0.113001811335E+00  0.990613252593E-01
  0.863871873096E-01  0.749297625166E-01  0.646330185903E-01  0.554353060153E-01  0.472703086626E-01
  0.400681322468E-01  0.337564807465E-01  0.282618637788E-01  0.235107790513E-01  0.194308208866E-01
  0.159516759668E-01  0.130059788431E-01  0.105300109594E-01  0.846423701276E-02  0.675368094628E-02
  0.534815053614E-02  0.420232443908E-02  0.327571882933E-02
 ae wavefunction
 -0.102472886723E-04 -0.108350209532E-04 -0.114549459026E-04 -0.121089170593E-04 -0.127988910540E-04
 -0.135269336239E-04 -0.142952259713E-04 -0.151060714855E-04 -0.159619028504E-04 -0.168652895609E-04
 -0.178189458725E-04 -0.188257392101E-04 -0.198886990636E-04 -0.210110263989E-04 -0.221961036166E-04
 -0.234475050893E-04 -0.247690083146E-04 -0.261646057173E-04 -0.276385171441E-04 -0.291952030881E-04
 -0.308393786894E-04 -0.325760285572E-04 -0.344104224641E-04 -0.363481319608E-04 -0.383950479726E-04
 -0.405573994297E-04 -0.428417729977E-04 -0.452551339723E-04 -0.478048484075E-04 -0.504987065511E-04
 -0.533449476663E-04 -0.563522863198E-04 -0.595299402264E-04 -0.628876597410E-04 -0.664357590960E-04
 -0.701851494890E-04 -0.741473741292E-04 -0.783346453601E-04 -0.827598839801E-04 -0.874367608932E-04
 -0.923797412250E-04 -0.976041310528E-04 -0.103126126901E-03 -0.108962868167E-03 -0.115132492649E-03
 -0.121654195358E-03 -0.128548290806E-03 -0.135836278977E-03 -0.143540915188E-03 -0.151686284078E-03
 -0.160297877953E-03 -0.169402679745E-03 -0.179029250857E-03 -0.189207824160E-03 -0.199970402454E-03
 -0.211350862693E-03 -0.223385066313E-03 -0.236110975993E-03 -0.249568779234E-03 -0.263801019118E-03
 -0.278852732661E-03 -0.294771597181E-03 -0.311608085123E-03 -0.329415627796E-03 -0.348250788537E-03
 -0.368173445777E-03 -0.389246986581E-03 -0.411538511189E-03 -0.435119049171E-03 -0.460063787791E-03
 -0.486452313225E-03 -0.514368865300E-03 -0.543902606446E-03 -0.575147905590E-03 -0.608204637730E-03
 -0.643178499981E-03 -0.680181344908E-03 -0.719331531958E-03 -0.760754297891E-03 -0.804582147077E-03
 -0.850955262603E-03 -0.900021939122E-03 -0.951939038433E-03 -0.100687246878E-02 -0.106499768890E-02
 -0.112650023783E-02 -0.119157629163E-02 -0.126043324790E-02 -0.133329033941E-02 -0.141037927773E-02
 -0.149194492809E-02 -0.157824601642E-02 -0.166955586977E-02 -0.176616319108E-02 -0.186837286933E-02
 -0.197650682606E-02 -0.209090489923E-02 -0.221192576524E-02 -0.233994789987E-02 -0.247537057899E-02
 -0.261861491952E-02 -0.277012496106E-02 -0.293036878868E-02 -0.309983969690E-02 -0.327905739481E-02
 -0.346856925211E-02 -0.366895158552E-02 -0.388081098472E-02 -0.410478567670E-02 -0.434154692697E-02
 -0.459180047573E-02 -0.485628800666E-02 -0.513578864523E-02 -0.543112048335E-02 -0.574314212596E-02
 -0.607275425503E-02 -0.642090120514E-02 -0.678857254446E-02 -0.717680465363E-02 -0.758668229421E-02
 -0.801934015737E-02 -0.847596438196E-02 -0.895779403005E-02 -0.946612250666E-02 -0.100022989085E-01
 -0.105677292853E-01 -0.111638777952E-01 -0.117922677341E-01 -0.124544824157E-01 -0.131521658795E-01
 -0.138870233970E-01 -0.146608217494E-01 -0.154753892422E-01 -0.163326154240E-01 -0.172344504687E-01
 -0.181829041828E-01 -0.191800445911E-01 -0.202279960544E-01 -0.213289368665E-01 -0.224850962763E-01
 -0.236987508755E-01 -0.249722202889E-01 -0.263078621013E-01 -0.277080659487E-01 -0.291752467007E-01
 -0.307118366543E-01 -0.323202766560E-01 -0.340030060684E-01 -0.357624514884E-01 -0.376010141264E-01
 -0.395210557502E-01 -0.415248830954E-01 -0.436147306433E-01 -0.457927416646E-01 -0.480609474300E-01
 -0.504212444856E-01 -0.528753698970E-01 -0.554248743667E-01 -0.580710931358E-01 -0.608151145859E-01
 -0.636577464684E-01 -0.665994796964E-01 -0.696404496494E-01 -0.727803949560E-01 -0.760186137408E-01
 -0.793539173401E-01 -0.827845815214E-01 -0.863082952697E-01 -0.899221072365E-01 -0.936223699892E-01
 -0.974046822397E-01 -0.101263829283E+00 -0.105193721927E+00 -0.109187334256E+00 -0.113236640634E+00
 -0.117332552418E+00 -0.121464854931E+00 -0.125622145284E+00 -0.129791771748E+00 -0.133959775394E+00
 -0.138110834806E+00 -0.142228214714E+00 -0.146293719470E+00 -0.150287652370E+00 -0.154188781947E+00
 -0.157974316528E+00 -0.161619888579E+00 -0.165099550588E+00 -0.168385784499E+00 -0.171449526902E+00
 -0.174260212283E+00 -0.176785836685E+00 -0.178993044042E+00 -0.180847237286E+00 -0.182312716172E+00
 -0.183352843493E+00 -0.183930241165E+00 -0.184007017445E+00 -0.183545026410E+00 -0.182506160667E+00
 -0.180852678076E+00 -0.178547563033E+00 -0.175554922516E+00 -0.171840416678E+00 -0.167371723299E+00
 -0.162119034818E+00 -0.156055586058E+00 -0.149158210050E+00 -0.141407918538E+00 -0.132790502950E+00
 -0.123297150645E+00 -0.112925070295E+00 -0.101678119241E+00 -0.895674246198E-01 -0.766119890172E-01
 -0.628392704123E-01 -0.482857252075E-01 -0.329973022911E-01 -0.170298753255E-01 -0.449599867697E-03
  0.166668184694E-01  0.342319587042E-01  0.521476355857E-01  0.703049796907E-01  0.885846572880E-01
  0.106857238048E+00  0.124983715583E+00  0.142816183454E+00  0.160198669250E+00  0.176968132936E+00
  0.192955642526E+00  0.207987747176E+00  0.221888068867E+00  0.234479122186E+00  0.245584347937E+00
  0.255030323436E+00  0.262649105313E+00  0.268280669471E+00  0.271775423489E+00  0.272996768401E+00
  0.271823680045E+00  0.268153271706E+00  0.261903294668E+00  0.253014532437E+00  0.241453045800E+00
  0.227212227544E+00  0.210314626202E+00  0.190813497593E+00  0.168794041569E+00  0.144374279964E+00
  0.117705531011E+00  0.889724362548E-01  0.583924991795E-01  0.262151011312E-01 -0.728003019667E-02
 -0.417849123946E-01 -0.769659613172E-01 -0.112467199938E+00 -0.147914017768E+00 -0.182917473942E+00
 -0.217079101936E+00 -0.249996050157E+00 -0.281266155683E+00 -0.310492338788E+00 -0.337285915116E+00
 -0.361269394536E+00 -0.382080559367E+00 -0.399379300150E+00 -0.412856108162E+00 -0.422239455031E+00
 -0.427300826194E+00 -0.427858101823E+00 -0.423778169764E+00 -0.414979071622E+00 -0.401431580818E+00
 -0.383159989451E+00 -0.360241927524E+00 -0.332807157145E+00 -0.301035398200E+00 -0.265153310607E+00
 -0.225430782964E+00 -0.182176673381E+00 -0.135734133820E+00 -0.864756317171E-01 -0.347977671704E-01
  0.188840279451E-01  0.741408309009E-01  0.130535535278E+00  0.187628052496E+00  0.244980336902E+00
  0.302161166895E+00  0.358750621188E+00  0.414344200365E+00  0.468556552144E+00  0.521024757177E+00
  0.571411110866E+00  0.619405293616E+00  0.664725784916E+00  0.707120394952E+00  0.746365921372E+00
  0.782267188752E+00  0.814655980806E+00  0.843390443866E+00  0.868355317124E+00  0.889462932195E+00
  0.906654594178E+00  0.919901848210E+00  0.929207271663E+00  0.934604632130E+00  0.936158407424E+00
  0.933962745793E+00  0.928139957137E+00  0.918838625607E+00  0.906231421489E+00  0.890512683812E+00
  0.871895841655E+00  0.850610737073E+00  0.826900907710E+00  0.801020858906E+00  0.773233359588E+00
  0.743806758003E+00  0.713012297791E+00  0.681121408045E+00  0.648402926026E+00  0.615120235818E+00
  0.581528328713E+00  0.547870850895E+00  0.514377207758E+00  0.481259969933E+00  0.448712623393E+00
  0.416907913900E+00  0.385996857973E+00  0.356108472681E+00  0.327350198566E+00  0.299808924934E+00
  0.273552477174E+00  0.248631396136E+00  0.225080830746E+00  0.202922376498E+00  0.182165722426E+00
  0.162810014784E+00  0.144844901491E+00  0.128251278886E+00  0.113001811335E+00  0.990613252593E-01
  0.863871873096E-01  0.749297625166E-01  0.646330185903E-01  0.554353060153E-01  0.472703086626E-01
  0.400681322468E-01  0.337564807465E-01  0.282618637788E-01  0.235107790513E-01  0.194308208866E-01
  0.159516759668E-01  0.130059788431E-01  0.105300109594E-01  0.846423701276E-02  0.675368094628E-02
  0.534815053614E-02  0.420232443908E-02  0.327571882933E-02
 pseudo wavefunction
  0.123826107077E-07  0.132010071489E-07  0.140734933735E-07  0.150036443051E-07  0.159952711424E-07
  0.170524369753E-07  0.181794734333E-07  0.193809984334E-07  0.206619351019E-07  0.220275319463E-07
  0.234833843606E-07  0.250354575518E-07  0.266901109815E-07  0.284541244236E-07  0.303347257434E-07
  0.323396205131E-07  0.344770235846E-07  0.367556927490E-07  0.391849646208E-07  0.417747928938E-07
  0.445357891251E-07  0.474792662149E-07  0.506172847603E-07  0.539627024719E-07  0.575292268571E-07
  0.613314713853E-07  0.653850153650E-07  0.697064677783E-07  0.743135353348E-07  0.792250950226E-07
  0.844612714550E-07  0.900435193291E-07  0.959947113340E-07  0.102339231869E-06  0.109103076958E-06
  0.116313960761E-06  0.124001429136E-06  0.132196980695E-06  0.140934195870E-06  0.150248874500E-06
  0.160179182524E-06  0.170765808358E-06  0.182052129609E-06  0.194084390817E-06  0.206911892930E-06
  0.220587195313E-06  0.235166331104E-06  0.250709036803E-06  0.267278997038E-06  0.284944105500E-06
  0.303776743138E-06  0.323854074726E-06  0.345258365038E-06  0.368077315922E-06  0.392404425645E-06
  0.418339371993E-06  0.445988420688E-06  0.475464860803E-06  0.506889468948E-06  0.540391004138E-06
  0.576106735370E-06  0.614183004064E-06  0.654775823684E-06  0.698051518978E-06  0.744187407478E-06
  0.793372526038E-06  0.845808405383E-06  0.901709895861E-06  0.961306047765E-06  0.102484104983E-05
  0.109257522979E-05  0.116478612097E-05  0.124176959955E-05  0.132384109677E-05  0.141133689142E-05
  0.150461548769E-05  0.160405908409E-05  0.171007513943E-05  0.182309804235E-05  0.194359089116E-05
  0.207204739127E-05  0.220899387813E-05  0.235499147376E-05  0.251063838586E-05  0.267657235888E-05
  0.285347328705E-05  0.304206600013E-05  0.324312323326E-05  0.345746879308E-05  0.368598093314E-05
  0.392959595234E-05  0.418931203123E-05  0.446619332184E-05  0.476137430776E-05  0.507606445247E-05
  0.541155315479E-05  0.576921503188E-05  0.615051555136E-05  0.655701703563E-05  0.699038506310E-05
  0.745239529235E-05  0.794494073737E-05  0.847003952351E-05  0.902984315612E-05  0.962664533557E-05
  0.102628913548E-04  0.109411881179E-04  0.116643148209E-04  0.124352343385E-04  0.132571053626E-04
  0.141332953442E-04  0.150673942891E-04  0.160632294667E-04  0.171248810898E-04  0.182566990310E-04
  0.194633206434E-04  0.207496897594E-04  0.221210769443E-04  0.235831010891E-04  0.251417524290E-04
  0.268034170842E-04  0.285749032209E-04  0.304634689417E-04  0.324768520191E-04  0.346233015926E-04
  0.369116119609E-04  0.393511586064E-04  0.419519365998E-04  0.447246015421E-04  0.476805132112E-04
  0.508317820923E-04  0.541913189819E-04  0.577728878686E-04  0.615911623069E-04  0.656617855157E-04
  0.700014344449E-04  0.746278880751E-04  0.795601002274E-04  0.848182771816E-04  0.904239604217E-04
  0.964001148443E-04  0.102771222792E-03  0.109563384297E-03  0.116804423941E-03  0.124524004773E-03
  0.132753749745E-03  0.141527371166E-03  0.150880808697E-03  0.160852376462E-03  0.171482919856E-03
  0.182815982709E-03  0.194897985478E-03  0.207778415191E-03  0.221510027929E-03  0.236149064651E-03
  0.251755481265E-03  0.268393193863E-03  0.286130340121E-03  0.305039557940E-03  0.325198282439E-03
  0.346689062531E-03  0.369599898342E-03  0.394024600865E-03  0.420063175294E-03  0.447822229594E-03
  0.477415409965E-03  0.508963864960E-03  0.542596740130E-03  0.578451705202E-03  0.616675515911E-03
  0.657424612752E-03  0.700865759063E-03  0.747176721017E-03  0.796546992230E-03  0.849178565919E-03
  0.905286757687E-03  0.965101082235E-03  0.102886618750E-02  0.109684284992E-02  0.116930903489E-02
  0.124656102639E-02  0.132891463061E-02  0.141670645796E-02  0.151029528881E-02  0.161006352819E-02
  0.171641875519E-02  0.182979537311E-02  0.195065636688E-02  0.207949517442E-02  0.221683767940E-02
  0.236324433282E-02  0.251931241189E-02  0.268567842456E-02  0.286302066899E-02  0.305206195768E-02
  0.325357251643E-02  0.346837306907E-02  0.369733811939E-02  0.394139944240E-02  0.420154979775E-02
  0.447884687881E-02  0.477441751169E-02  0.508946211912E-02  0.542525946510E-02  0.578317169689E-02
  0.616464970177E-02  0.657123879690E-02  0.700458477143E-02  0.746644030095E-02  0.795867175526E-02
  0.848326642120E-02  0.904234016341E-02  0.963814554655E-02  0.102730804434E-01  0.109496971542E-01
  0.116707120631E-01  0.124390158587E-01  0.132576843451E-01  0.141299898729E-01  0.150594134161E-01
  0.160496573248E-01  0.171046587811E-01  0.182286039858E-01  0.194259431047E-01  0.207014059977E-01
  0.220600187592E-01  0.235071210902E-01  0.250483845229E-01  0.266898315165E-01  0.284378554367E-01
  0.302992414264E-01  0.322811881734E-01  0.343913305674E-01  0.366377632366E-01  0.390290649394E-01
  0.415743237782E-01  0.442831631875E-01  0.471657686316E-01  0.502329149313E-01  0.534959941151E-01
  0.569670436677E-01  0.606587750192E-01  0.645846020878E-01  0.687586696505E-01  0.731958812761E-01
  0.779119265068E-01  0.829233069227E-01  0.882473606615E-01  0.939022849025E-01  0.999071557438E-01
  0.106281944824E+00  0.113047531942E+00  0.120225712827E+00  0.127839201103E+00  0.135911623360E+00
  0.144467506118E+00  0.153532253311E+00  0.163132112781E+00  0.173294130078E+00  0.184046087708E+00
  0.195416427754E+00  0.207434155639E+00  0.220128722542E+00  0.233529883845E+00  0.247667530723E+00
  0.262571491835E+00  0.278271301905E+00  0.294795933782E+00  0.312173490521E+00  0.330430853894E+00
  0.349593285780E+00  0.369683978950E+00  0.390723553939E+00  0.412729499027E+00  0.435715550803E+00
  0.459691013480E+00  0.484660015960E+00  0.510620706840E+00  0.537564388958E+00  0.565474596840E+00
  0.594326122565E+00  0.624083998048E+00  0.654702444702E+00  0.686123804749E+00  0.718277472164E+00
  0.751078845285E+00  0.784428327380E+00  0.818210405796E+00  0.852292844519E+00  0.886526028710E+00
  0.920742502665E+00  0.954756744132E+00  0.988365217450E+00  0.102134674460E+01  0.105346322630E+01
  0.108446073346E+01  0.111407097189E+01  0.114201309863E+01  0.116799583612E+01  0.119171978962E+01
  0.121287982415E+01  0.123116729969E+01  0.124627190046E+01  0.125788272862E+01  0.126568827112E+01
  0.126937479961E+01  0.126862273966E+01  0.126310056385E+01  0.125245584377E+01  0.123630326409E+01
  0.121420968427E+01  0.118567870407E+01  0.115037724671E+01  0.110841653494E+01  0.105998822681E+01
  0.000000000000E+00  0.000000000000E+00  0.000000000000E+00  0.000000000000E+00  0.000000000000E+00
  0.000000000000E+00  0.000000000000E+00  0.000000000000E+00  0.000000000000E+00  0.000000000000E+00
  0.000000000000E+00  0.000000000000E+00  0.000000000000E+00  0.000000000000E+00  0.000000000000E+00
  0.000000000000E+00  0.000000000000E+00  0.000000000000E+00  0.000000000000E+00  0.000000000000E+00
  0.000000000000E+00  0.000000000000E+00  0.000000000000E+00  0.000000000000E+00  0.000000000000E+00
  0.000000000000E+00  0.000000000000E+00  0.000000000000E+00  0.000000000000E+00  0.000000000000E+00
  0.000000000000E+00  0.000000000000E+00  0.000000000000E+00  0.000000000000E+00  0.000000000000E+00
  0.000000000000E+00  0.000000000000E+00  0.000000000000E+00  0.000000000000E+00  0.000000000000E+00
  0.000000000000E+00  0.000000000000E+00  0.000000000000E+00  0.000000000000E+00  0.000000000000E+00
  0.000000000000E+00  0.000000000000E+00  0.000000000000E+00
 ae wavefunction
 -0.147604293229E-04 -0.156070124519E-04 -0.164999666397E-04 -0.174419617668E-04 -0.184358162090E-04
 -0.194845055021E-04 -0.205911715002E-04 -0.217591320584E-04 -0.229918912709E-04 -0.242931502974E-04
 -0.256668188142E-04 -0.271170271265E-04 -0.286481389814E-04 -0.302647651241E-04 -0.319717776425E-04
 -0.337743251457E-04 -0.356778488281E-04 -0.376880994711E-04 -0.398111554390E-04 -0.420534417291E-04
 -0.444217501384E-04 -0.469232606130E-04 -0.495655638550E-04 -0.523566852549E-04 -0.553051102377E-04
 -0.584198110981E-04 -0.617102754217E-04 -0.651865361812E-04 -0.688592036111E-04 -0.727394989644E-04
 -0.768392902660E-04 -0.811711301793E-04 -0.857482961136E-04 -0.905848327055E-04 -0.956955968136E-04
 -0.101096305179E-03 -0.106803584907E-03 -0.112835026939E-03 -0.119209242692E-03 -0.125945924051E-03
 -0.133065906918E-03 -0.140591238519E-03 -0.148545248702E-03 -0.156952625452E-03 -0.165839494869E-03
 -0.175233505892E-03 -0.185163920012E-03 -0.195661706301E-03 -0.206759642043E-03 -0.218492419306E-03
 -0.230896757794E-03 -0.244011524345E-03 -0.257877859459E-03 -0.272539311259E-03 -0.288041977313E-03
 -0.304434654766E-03 -0.321768999249E-03 -0.340099693078E-03 -0.359484623249E-03 -0.379985069791E-03
 -0.401665905052E-03 -0.424595804532E-03 -0.448847469888E-03 -0.474497864799E-03 -0.501628464381E-03
 -0.530325518889E-03 -0.560680332488E-03 -0.592789557886E-03 -0.626755507684E-03 -0.662686483313E-03
 -0.700697122497E-03 -0.740908766178E-03 -0.783449845925E-03 -0.828456292850E-03 -0.876071969135E-03
 -0.926449123263E-03 -0.979748870152E-03 -0.103614169738E-02 -0.109580799873E-02 -0.115893863644E-02
 -0.122573553328E-02 -0.129641229613E-02 -0.137119487214E-02 -0.145032223913E-02 -0.153404713167E-02
 -0.162263680419E-02 -0.171637383286E-02 -0.181555695760E-02 -0.192050196594E-02 -0.203154262009E-02
 -0.214903162904E-02 -0.227334166699E-02 -0.240486643985E-02 -0.254402180123E-02 -0.269124691937E-02
 -0.284700549656E-02 -0.301178704212E-02 -0.318610820058E-02 -0.337051413582E-02 -0.356557997250E-02
 -0.377191229536E-02 -0.399015070735E-02 -0.422096944685E-02 -0.446507906419E-02 -0.472322815758E-02
 -0.499620516789E-02 -0.528484023157E-02 -0.559000709050E-02 -0.591262505721E-02 -0.625366103317E-02
 -0.661413157742E-02 -0.699510502211E-02 -0.739770363073E-02 -0.782310579407E-02 -0.827254825797E-02
 -0.874732837591E-02 -0.924880637852E-02 -0.977840765063E-02 -0.103376250054E-01 -0.109280209435E-01
 -0.115512298834E-01 -0.122089603482E-01 -0.129029970906E-01 -0.136352031376E-01 -0.144075217331E-01
 -0.152219781544E-01 -0.160806813762E-01 -0.169858255523E-01 -0.179396912843E-01 -0.189446466387E-01
 -0.200031478777E-01 -0.211177398570E-01 -0.222910560474E-01 -0.235258181277E-01 -0.248248350955E-01
 -0.261910018349E-01 -0.276272970796E-01 -0.291367806994E-01 -0.307225902384E-01 -0.323879366238E-01
 -0.341360989613E-01 -0.359704183256E-01 -0.378942904511E-01 -0.399111572188E-01 -0.420244968339E-01
 -0.442378125784E-01 -0.465546200219E-01 -0.489784325647E-01 -0.515127451847E-01 -0.541610162547E-01
 -0.569266472911E-01 -0.598129604944E-01 -0.628231739370E-01 -0.659603742533E-01 -0.692274866881E-01
 -0.726272423576E-01 -0.761621425836E-01 -0.798344201640E-01 -0.836459974507E-01 -0.875984411149E-01
 -0.916929134934E-01 -0.959301204236E-01 -0.100310255495E+00 -0.104832940669E+00 -0.109497163240E+00
 -0.114301209157E+00 -0.119242592742E+00 -0.124317982909E+00 -0.129523126009E+00 -0.134852765512E+00
 -0.140300558771E+00 -0.145858991215E+00 -0.151519288360E+00 -0.157271326146E+00 -0.163103540172E+00
 -0.169002834524E+00 -0.174954490962E+00 -0.180942079345E+00 -0.186947370281E+00 -0.192950251049E+00
 -0.198928645942E+00 -0.204858442271E+00 -0.210713423340E+00 -0.216465209843E+00 -0.222083211315E+00
 -0.227534589488E+00 -0.232784235751E+00 -0.237794765243E+00 -0.242526530472E+00 -0.246937657640E+00
 -0.250984108998E+00 -0.254619774622E+00 -0.257796596843E+00 -0.260464730416E+00 -0.262572741162E+00
 -0.264067845553E+00 -0.264896193329E+00 -0.265003195017E+00 -0.264333895926E+00 -0.262833398061E+00
 -0.260447331071E+00 -0.257122373009E+00 -0.252806821227E+00 -0.247451213075E+00 -0.241008995414E+00
 -0.233437241124E+00 -0.224697409879E+00 -0.214756149433E+00 -0.203586132532E+00 -0.191166923349E+00
 -0.177485865966E+00 -0.162538986077E+00 -0.146331895551E+00 -0.128880688066E+00 -0.110212812467E+00
 -0.903679090910E-01 -0.693985929144E-01 -0.473711661198E-01 -0.243662416295E-01 -0.479258272805E-03
  0.241791323049E-01  0.494828270375E-01  0.752902007133E-01  0.101444221305E+00  0.127772766914E+00
  0.154089156012E+00  0.180192898231E+00  0.205870669541E+00  0.230897515660E+00  0.255038292698E+00
  0.278049363912E+00  0.299680581635E+00  0.319677584908E+00  0.337784426586E+00  0.353746509392E+00
  0.367313777424E+00  0.378244099518E+00  0.386306793577E+00  0.391286256278E+00  0.392985664925E+00
  0.391230708463E+00  0.385873292450E+00  0.376795155425E+00  0.363911332772E+00  0.347173406254E+00
  0.326572479668E+00  0.302141821826E+00  0.273959117126E+00  0.242148262003E+00  0.206880643398E+00
  0.168375834336E+00  0.126901642704E+00  0.827734539390E-01  0.363528174250E-01 -0.119547596013E-01
 -0.617028295381E-01 -0.112407835698E+00 -0.163553750172E+00 -0.214597511294E+00 -0.264975251326E+00
 -0.314109253962E+00 -0.361415402367E+00 -0.406310536595E+00 -0.448218838216E+00 -0.486576664439E+00
 -0.520836657906E+00 -0.550473719346E+00 -0.574994967697E+00 -0.593952090003E+00 -0.606952085733E+00
 -0.613664633455E+00 -0.613827083716E+00 -0.607248352064E+00 -0.593812143191E+00 -0.573479357705E+00
 -0.546289358591E+00 -0.512359842954E+00 -0.471885236815E+00 -0.425133694700E+00 -0.372442884155E+00
 -0.314214770429E+00 -0.250909610343E+00 -0.183039343271E+00 -0.111160541739E+00 -0.358670618523E-01
  0.422174833268E-01  0.122447316132E+00  0.204162046902E+00  0.286694083895E+00  0.369375798962E+00
  0.451546352111E+00  0.532558087721E+00  0.611782431201E+00  0.688615226705E+00  0.762481453858E+00
  0.832839230546E+00  0.899182947412E+00  0.961045329293E+00  0.101799825102E+01  0.106965233459E+01
  0.111565571719E+01  0.115569273553E+01  0.118948335279E+01  0.121678381343E+01  0.123738840792E+01
  0.125113175944E+01  0.125789090308E+01  0.125758663555E+01  0.125018390561E+01  0.123569123788E+01
  0.121415929579E+01  0.118567870407E+01  0.115037724671E+01  0.110841653494E+01  0.105998822681E+01
  0.000000000000E+00  0.000000000000E+00  0.000000000000E+00  0.000000000000E+00  0.000000000000E+00
  0.000000000000E+00  0.000000000000E+00  0.000000000000E+00  0.000000000000E+00  0.000000000000E+00
  0.000000000000E+00  0.000000000000E+00  0.000000000000E+00  0.000000000000E+00  0.000000000000E+00
  0.000000000000E+00  0.000000000000E+00  0.000000000000E+00  0.000000000000E+00  0.000000000000E+00
  0.000000000000E+00  0.000000000000E+00  0.000000000000E+00  0.000000000000E+00  0.000000000000E+00
  0.000000000000E+00  0.000000000000E+00  0.000000000000E+00  0.000000000000E+00  0.000000000000E+00
  0.000000000000E+00  0.000000000000E+00  0.000000000000E+00  0.000000000000E+00  0.000000000000E+00
  0.000000000000E+00  0.000000000000E+00  0.000000000000E+00  0.000000000000E+00  0.000000000000E+00
  0.000000000000E+00  0.000000000000E+00  0.000000000000E+00  0.000000000000E+00  0.000000000000E+00
  0.000000000000E+00  0.000000000000E+00  0.000000000000E+00
 pseudo wavefunction
  0.177267236747E-12  0.195128517616E-12  0.214789484431E-12  0.236431471862E-12  0.260254085695E-12
  0.286477043805E-12  0.315342202634E-12  0.347115787857E-12  0.382090849794E-12  0.420589966245E-12
  0.462968217645E-12  0.509616462004E-12  0.560964939816E-12  0.617487242208E-12  0.679704678906E-12
  0.748191086314E-12  0.823578120059E-12  0.906561080795E-12  0.997905327024E-12  0.109845333405E-11
  0.120913246421E-11  0.133096351999E-11  0.146507015899E-11  0.161268925751E-11  0.177518231832E-11
  0.195404802798E-11  0.215093607926E-11  0.236766238647E-11  0.260622583375E-11  0.286882671090E-11
  0.315788700693E-11  0.347607274814E-11  0.382631858719E-11  0.421185486959E-11  0.463623742748E-11
  0.510338037528E-11  0.561759220998E-11  0.618361554869E-11  0.680667087020E-11  0.749250466388E-11
  0.824744243004E-11  0.907844702050E-11  0.999318285755E-11  0.110000866236E-10  0.121084450732E-10
  0.133284806858E-10  0.146714459483E-10  0.161497271379E-10  0.177769585613E-10  0.195681483057E-10
  0.215398166589E-10  0.237101484779E-10  0.260991609088E-10  0.287288880071E-10  0.316235839592E-10
  0.348099467812E-10  0.383173645563E-10  0.421781864842E-10  0.464280212402E-10  0.511060653970E-10
  0.562554649379E-10  0.619237131961E-10  0.681630888895E-10  0.750311382920E-10  0.825912059874E-10
  0.909130191023E-10  0.100073330405E-09  0.110156626203E-09  0.121255905569E-09  0.133473538077E-09
  0.146922207966E-09  0.161725953441E-09  0.178021310682E-09  0.195958573135E-09  0.215703177679E-09
  0.237437230466E-09  0.261361186503E-09  0.287695698467E-09  0.316683651805E-09  0.348592404891E-09
  0.383716254894E-09  0.422379152115E-09  0.464937687805E-09  0.511784383048E-09  0.563351309016E-09
  0.620114072012E-09  0.682596200028E-09  0.751373971305E-09  0.827081729401E-09  0.910417733817E-09
  0.100215060012E-08  0.110312638895E-08  0.121427640937E-08  0.133662580840E-08  0.147130302610E-08
  0.161955020328E-08  0.178273463792E-08  0.196236139596E-08  0.216008719269E-08  0.237773567284E-08
  0.261731423034E-08  0.288103252277E-08  0.317132285132E-08  0.349086259433E-08  0.384259890108E-08
  0.422977587384E-08  0.465596448876E-08  0.512509553154E-08  0.564149585177E-08  0.620992827021E-08
  0.683563550716E-08  0.752438853711E-08  0.828253981552E-08  0.911708186887E-08  0.100357117882E-07
  0.110469022211E-07  0.121599795170E-07  0.133852097462E-07  0.147338933864E-07  0.162184695503E-07
  0.178526307147E-07  0.196514490102E-07  0.216315152361E-07  0.238110918829E-07  0.262102815727E-07
  0.288512124733E-07  0.317582423942E-07  0.349581834485E-07  0.384805493513E-07  0.423578276379E-07
  0.466257793110E-07  0.513237686814E-07  0.564951264449E-07  0.621875493444E-07  0.684535401039E-07
  0.753508916919E-07  0.829432203827E-07  0.913005525314E-07  0.100499970476E-06  0.110626323525E-06
  0.121773010591E-06  0.134042841684E-06  0.147548986220E-06  0.162416016892E-06  0.178781058721E-06
  0.196795053913E-06  0.216624154158E-06  0.238451253255E-06  0.262477674164E-06  0.288925026080E-06
  0.318037248650E-06  0.350082862197E-06  0.385357444711E-06  0.424186358475E-06  0.466927751463E-06
  0.513975861235E-06  0.565764651798E-06  0.622771816997E-06  0.685523187397E-06  0.754597581314E-06
  0.830632144771E-06  0.914328229680E-06  0.100645786449E-05  0.110787087705E-05  0.121950273541E-05
  0.134238317903E-05  0.147764571996E-05  0.162653810184E-05  0.179043381321E-05  0.197084476153E-05
  0.216943522492E-05  0.238803721045E-05  0.262866736092E-05  0.289354556632E-05  0.318511545182E-05
  0.350606693175E-05  0.385936103790E-05  0.424825725165E-05  0.467634359260E-05  0.514756974189E-05
  0.566628350641E-05  0.623727096129E-05  0.686580064180E-05  0.755767219368E-05  0.831926993200E-05
  0.915762180427E-05  0.100804643037E-04  0.110963139338E-04  0.122145458859E-04  0.134454806591E-04
  0.148004794251E-04  0.162920490213E-04  0.179339575482E-04  0.197413616399E-04  0.217309465922E-04
  0.239210806475E-04  0.263319848697E-04  0.289859201884E-04  0.319073933501E-04  0.351233836936E-04
  0.386635928590E-04  0.425607197553E-04  0.468507633512E-04  0.515733561079E-04  0.567721311698E-04
  0.624951267380E-04  0.687952314064E-04  0.757306746262E-04  0.833655668876E-04  0.917704946814E-04
  0.101023175819E-03  0.111209181262E-03  0.122422730250E-03  0.134767566195E-03  0.148357921613E-03
  0.163319581175E-03  0.179791052930E-03  0.197924858772E-03  0.217888956383E-03  0.239868306127E-03
  0.264066597804E-03  0.290708153697E-03  0.320040026050E-03  0.352334309039E-03  0.387890687358E-03
  0.427039245885E-03  0.470143567430E-03  0.517604148440E-03  0.569862165640E-03  0.627403630105E-03
  0.690763969071E-03  0.760533080117E-03  0.837360907024E-03  0.921963591898E-03  0.101513026395E-02
  0.111773053174E-02  0.123072275293E-02  0.135516316330E-02  0.149221595589E-02  0.164316441049E-02
  0.180942318491E-02  0.199255189095E-02  0.219427009175E-02  0.241647387161E-02  0.266125414565E-02
  0.293091689486E-02  0.322800553204E-02  0.355532562608E-02  0.391597223646E-02  0.431336013697E-02
  0.475125723704E-02  0.523382154201E-02  0.576564202937E-02  0.635178385761E-02  0.699783836722E-02
  0.770997838057E-02  0.849501935831E-02  0.936048702553E-02  0.103146921404E-01  0.113668131418E-01
  0.125269874813E-01  0.138064125153E-01  0.152174569093E-01  0.167737835834E-01  0.184904853063E-01
  0.203842341228E-01  0.224734458750E-01  0.247784611465E-01  0.273217440156E-01  0.301281000509E-01
  0.332249149995E-01  0.366424156146E-01  0.404139540192E-01  0.445763169038E-01  0.491700606883E-01
  0.542398735292E-01  0.598349646941E-01  0.660094813384E-01  0.728229520717E-01  0.803407558611E-01
  0.886346137496E-01  0.977830995269E-01  0.107872163835E+00  0.118995664179E+00  0.131255890878E+00
  0.144764076150E+00  0.159640870118E+00  0.176016763711E+00  0.194032434002E+00  0.213838982694E+00
  0.235598033130E+00  0.259481645647E+00  0.285672005338E+00  0.314360830747E+00  0.345748447046E+00
  0.380042463250E+00  0.417455990822E+00  0.458205341259E+00  0.502507143914E+00  0.550574833491E+00
  0.602614470275E+00  0.658819876507E+00  0.719367099994E+00  0.784408251618E+00  0.854064806601E+00
  0.928420508667E+00  0.100751406890E+01  0.109133190203E+01  0.117980118469E+01  0.127278354259E+01
  0.137006966297E+01  0.147137742353E+01  0.157664611941E+01  0.168639728726E+01  0.180131120941E+01
  0.000000000000E+00  0.000000000000E+00  0.000000000000E+00  0.000000000000E+00  0.000000000000E+00
  0.000000000000E+00  0.000000000000E+00  0.000000000000E+00  0.000000000000E+00  0.000000000000E+00
  0.000000000000E+00  0.000000000000E+00  0.000000000000E+00  0.000000000000E+00  0.000000000000E+00
  0.000000000000E+00  0.000000000000E+00  0.000000000000E+00  0.000000000000E+00  0.000000000000E+00
  0.000000000000E+00  0.000000000000E+00  0.000000000000E+00  0.000000000000E+00  0.000000000000E+00
  0.000000000000E+00  0.000000000000E+00  0.000000000000E+00  0.000000000000E+00  0.000000000000E+00
  0.000000000000E+00  0.000000000000E+00  0.000000000000E+00  0.000000000000E+00  0.000000000000E+00
  0.000000000000E+00  0.000000000000E+00  0.000000000000E+00  0.000000000000E+00  0.000000000000E+00
  0.000000000000E+00  0.000000000000E+00  0.000000000000E+00  0.000000000000E+00  0.000000000000E+00
  0.000000000000E+00  0.000000000000E+00  0.000000000000E+00
 ae wavefunction
  0.535557091688E-08  0.584615313731E-08  0.637852560588E-08  0.695650990188E-08  0.758425806966E-08
  0.826628296352E-08  0.900749126720E-08  0.981321943545E-08  0.106892728289E-07  0.116419683367E-07
  0.126781808101E-07  0.138053936577E-07  0.150317539870E-07  0.163661327108E-07  0.178181900761E-07
  0.193984471160E-07  0.211183635701E-07  0.229904228701E-07  0.250282248424E-07  0.272465868402E-07
  0.296616540841E-07  0.322910200596E-07  0.351538579081E-07  0.382710638173E-07  0.416654135360E-07
  0.453617332175E-07  0.493870859270E-07  0.537709752659E-07  0.585455677009E-07  0.637459353370E-07
  0.694103210381E-07  0.755804279733E-07  0.823017358654E-07  0.896238464322E-07  0.976008607428E-07
  0.106291791472E-06  0.115761013312E-06  0.126078755111E-06  0.137321637645E-06  0.149573261296E-06
  0.162924848318E-06  0.177475944804E-06  0.193335187967E-06  0.210621144862E-06  0.229463229270E-06
  0.250002704090E-06  0.272393777285E-06  0.296804800196E-06  0.323419577861E-06  0.352438801893E-06
  0.384081617488E-06  0.418587337191E-06  0.456217315294E-06  0.497256998004E-06  0.542018166008E-06
  0.590841387576E-06  0.644098702118E-06  0.702196555950E-06  0.765579014125E-06  0.834731274405E-06
  0.910183511934E-06  0.992515085885E-06  0.108235914228E-05  0.118040765041E-05  0.128741691390E-05
  0.140421360116E-05  0.153170134434E-05  0.167086796055E-05  0.182279335389E-05  0.198865816276E-05
  0.216975322259E-05  0.236748992093E-05  0.258341152899E-05  0.281920560157E-05  0.307671754584E-05
  0.335796546909E-05  0.366515642535E-05  0.400070419242E-05  0.436724872277E-05  0.476767742515E-05
  0.520514844821E-05  0.568311615343E-05  0.620535898171E-05  0.677600993681E-05  0.739958992947E-05
  0.808104424819E-05  0.882578244692E-05  0.963972196661E-05  0.105293358361E-04  0.115017048290E-04
  0.125645744880E-04  0.137264174643E-04  0.149965016595E-04  0.163849647031E-04  0.179028953445E-04
  0.195624223888E-04  0.213768118647E-04  0.233605731707E-04  0.255295750111E-04  0.279011720074E-04
  0.304943429431E-04  0.333298416869E-04  0.364303619264E-04  0.398207169430E-04  0.435280357630E-04
  0.475819771314E-04  0.520149628805E-04  0.568624323912E-04  0.621631199907E-04  0.679593572794E-04
  0.742974025429E-04  0.812277995817E-04  0.888057684757E-04  0.970916310030E-04  0.106151273648E-03
  0.116056651359E-03  0.126886335465E-03  0.138726109418E-03  0.151669616304E-03  0.165819062360E-03
  0.181285981049E-03  0.198192062567E-03  0.216670054014E-03  0.236864735803E-03  0.258933980313E-03
  0.283049899130E-03  0.309400085698E-03  0.338188960608E-03  0.369639227210E-03  0.403993445724E-03
  0.441515734465E-03  0.482493607348E-03  0.527239957286E-03  0.576095195644E-03  0.629429558386E-03
  0.687645590092E-03  0.751180817488E-03  0.820510624623E-03  0.896151342294E-03  0.978663564722E-03
  0.106865570687E-02  0.116678781616E-02  0.127377565246E-02  0.139039505065E-02  0.151748657985E-02
  0.165596051347E-02  0.180680212419E-02  0.197107731733E-02  0.214993861572E-02  0.234463150834E-02
  0.255650117392E-02  0.278699958949E-02  0.303769303186E-02  0.331026997852E-02  0.360654941129E-02
  0.392848952375E-02  0.427819682947E-02  0.465793566433E-02  0.507013807132E-02  0.551741405083E-02
  0.600256215314E-02  0.652858038289E-02  0.709867737711E-02  0.771628380947E-02  0.838506396345E-02
  0.910892740557E-02  0.989204067778E-02  0.107388389141E-01  0.116540372718E-01  0.126426420508E-01
  0.137099613577E-01  0.148616151508E-01  0.161035444830E-01  0.174420197374E-01  0.188836476255E-01
  0.204353766956E-01  0.221045010695E-01  0.238986620988E-01  0.258258475984E-01  0.278943882798E-01
  0.301129509663E-01  0.324905281283E-01  0.350364232263E-01  0.377602313005E-01  0.406718142025E-01
  0.437812698293E-01  0.470988947065E-01  0.506351392785E-01  0.544005552905E-01  0.584057346962E-01
  0.626612395692E-01  0.671775225412E-01  0.719648373171E-01  0.770331388354E-01  0.823919726511E-01
  0.880503531126E-01  0.940166299146E-01  0.100298342634E+00  0.106902062923E+00  0.113833224164E+00
  0.121095938520E+00  0.128692801546E+00  0.136624684697E+00  0.144890516309E+00  0.153487051911E+00
  0.162408634977E+00  0.171646949572E+00  0.181190766697E+00  0.191025686496E+00  0.201133878916E+00
  0.211493825809E+00  0.222080067890E+00  0.232862960401E+00  0.243808441736E+00  0.254877819686E+00
  0.266027580327E+00  0.277209224893E+00  0.288369140281E+00  0.299448509020E+00  0.310383264636E+00
  0.321104098268E+00  0.331536521905E+00  0.341600992648E+00  0.351213100680E+00  0.360283821198E+00
  0.368719828083E+00  0.376423865638E+00  0.383295176381E+00  0.389229988971E+00  0.394122080834E+00
  0.397863441913E+00  0.400345073198E+00  0.401457947599E+00  0.401094136232E+00  0.399148068479E+00
  0.395517872648E+00  0.390106751761E+00  0.382824375213E+00  0.373588286893E+00  0.362325332185E+00
  0.348973096488E+00  0.333481337924E+00  0.315813392628E+00  0.295947532014E+00  0.273878254148E+00
  0.249617493161E+00  0.223195730212E+00  0.194662987235E+00  0.164089681222E+00  0.131567313011E+00
  0.972089612218E-01  0.611495499733E-01  0.235458591162E-01 -0.154237513525E-01 -0.555599253746E-01
 -0.966432190962E-01 -0.138435344127E+00 -0.180680758538E+00 -0.223108628582E+00 -0.265435190316E+00
 -0.307366500747E+00 -0.348601411819E+00 -0.388834295863E+00 -0.427756778333E+00 -0.465058000549E+00
 -0.500424206679E+00 -0.533540096848E+00 -0.564094053576E+00 -0.591785950498E+00 -0.616333933315E+00
 -0.637478529579E+00 -0.654985045120E+00 -0.668645509801E+00 -0.678280660905E+00 -0.683741884974E+00
 -0.684912828488E+00 -0.681710402222E+00 -0.674085030926E+00 -0.662020139554E+00 -0.645530959372E+00
 -0.624662775909E+00 -0.599488740379E+00 -0.570107351098E+00 -0.536639690199E+00 -0.499226480967E+00
 -0.458025014780E+00 -0.413205983051E+00 -0.364950242706E+00 -0.313445539145E+00 -0.258883212625E+00
 -0.201454915966E+00 -0.141349372843E+00 -0.787492042471E-01 -0.138278433941E-01  0.532534455006E-01
  0.122348422328E+00  0.193328547577E+00  0.266085373587E+00  0.340532496809E+00  0.416606938865E+00
  0.494269972877E+00  0.573507668106E+00  0.654331656650E+00  0.736780660310E+00  0.820923101616E+00
  0.906860813465E+00  0.994733629777E+00  0.108472460955E+01  0.117706574281E+01  0.127204411776E+01
  0.137000863647E+01  0.147137742353E+01  0.157664611941E+01  0.168639728726E+01  0.180131120941E+01
  0.000000000000E+00  0.000000000000E+00  0.000000000000E+00  0.000000000000E+00  0.000000000000E+00
  0.000000000000E+00  0.000000000000E+00  0.000000000000E+00  0.000000000000E+00  0.000000000000E+00
  0.000000000000E+00  0.000000000000E+00  0.000000000000E+00  0.000000000000E+00  0.000000000000E+00
  0.000000000000E+00  0.000000000000E+00  0.000000000000E+00  0.000000000000E+00  0.000000000000E+00
  0.000000000000E+00  0.000000000000E+00  0.000000000000E+00  0.000000000000E+00  0.000000000000E+00
  0.000000000000E+00  0.000000000000E+00  0.000000000000E+00  0.000000000000E+00  0.000000000000E+00
  0.000000000000E+00  0.000000000000E+00  0.000000000000E+00  0.000000000000E+00  0.000000000000E+00
  0.000000000000E+00  0.000000000000E+00  0.000000000000E+00  0.000000000000E+00  0.000000000000E+00
  0.000000000000E+00  0.000000000000E+00  0.000000000000E+00  0.000000000000E+00  0.000000000000E+00
  0.000000000000E+00  0.000000000000E+00  0.000000000000E+00
 End of Dataset

