findsym-output                          
   1.00000000000000     
    12.9991678092279930   -0.0000000005127450    0.0000000000000000
     0.0000034613857430   12.9991678092279930    0.0000000000000000
    -0.0000000000000000    0.0000000000000000   20.4851125418045719
   Ta   Te
    24    96
Direct
  0.0000000000000000 -0.0000000000000000  0.5691859799260497
  0.5000000140000012  0.5000000000000000  0.5691859799260497
  0.5000000000000000 -0.0000000000000000  0.4308140200739503
  0.0000000000000000  0.5000000000000000  0.4308140200739503
  0.5000000000000000 -0.0000000000000000  0.9308140200739503
  0.0000000000000000  0.5000000000000000  0.9308140200739503
  0.0000000000000000 -0.0000000000000000  0.0691859749260529
  0.5000000140000012  0.5000000000000000  0.0691859749260529
  0.0000000000000000 -0.0000000000000000  0.7631026231754773
  0.5000000140000012  0.5000000000000000  0.7631026231754773
  0.5000000000000000 -0.0000000000000000  0.2368983548245252
  0.0000000000000000  0.5000000000000000  0.2368983548245252
  0.5000000000000000 -0.0000000000000000  0.7368973768245227
  0.0000000000000000  0.5000000000000000  0.7368973768245227
  0.0000000000000000 -0.0000000000000000  0.2631016451754750
  0.5000000140000012  0.5000000000000000  0.2631016451754750
  0.0000000000000000 -0.0000000000000000  0.4152663006014138
  0.5000000140000012  0.5000000000000000  0.4152663006014138
  0.5000000000000000 -0.0000000000000000  0.5847336523985857
  0.0000000000000000  0.5000000000000000  0.5847336523985857
  0.5000000000000000 -0.0000000000000000  0.0847336703985802
  0.0000000000000000  0.5000000000000000  0.0847336703985802
  0.0000000000000000 -0.0000000000000000  0.9152663936014181
  0.5000000140000012  0.5000000000000000  0.9152663936014181
  0.4394374569239600  0.3439047331822994  0.6659251667119623
  0.9394375079239604  0.8439047331822993  0.6659251667119623
  0.5605625190760383  0.1560952858177059  0.3340747872880405
  0.0605625190760381  0.6560952668177007  0.3340747872880405
  0.5605625330760394  0.6560952668177007  0.6659251667119623
  0.0605625190760381  0.1560952858177059  0.6659251667119623
  0.4394374709239611  0.8439047331822993  0.3340747872880405
  0.9394374939239664  0.3439047331822994  0.3340747872880405
  0.1560952918177228  0.9394375119239504  0.6659251667119623
  0.6560952968177196  0.4394374759239546  0.6659251667119623
  0.3439047161822778  0.0605625330760497  0.3340747872880405
  0.8439047301822791  0.5605625240760455  0.3340747872880405
  0.8439047161822779  0.0605625200760451  0.6659251667119623
  0.3439047301822790  0.5605625240760455  0.6659251667119623
  0.6560952368177217  0.9394375119239504  0.3340747872880405
  0.1560952788177182  0.4394374759239546  0.3340747872880405
  0.3439047391822999  0.9394375119239607  0.8340747872880410
  0.8439047621822982  0.4394374759239651  0.8340747872880410
  0.1560952878177061  0.0605625430760401  0.1659252017119621
  0.6560952648177005  0.5605625240760351  0.1659252017119621
  0.6560952508176994  0.0605625200760347  0.8340747872880410
  0.1560952828177021  0.5605625240760351  0.8340747872880410
  0.8439047021823003  0.9394375119239607  0.1659252017119621
  0.3439047261822952  0.4394374759239651  0.1659252017119621
  0.4394374709239506  0.1560953038177167  0.8340747872880410
  0.9394374839239552  0.6560952668177171  0.8340747872880410
  0.5605625060760440  0.3439047331822828  0.1659252017119621
  0.0605625200760451  0.8439047331822829  0.1659252017119621
  0.5605625200760451  0.8439047331822829  0.8340747872880410
  0.0605625200760451  0.3439047331822828  0.8340747872880410
  0.4394374839239553  0.6560952668177171  0.1659252017119621
  0.9394375439239531  0.1560952858177223  0.1659252017119621
  0.8360662999652045  0.9193431481752010  0.8353381320712713
  0.3360663229652027  0.4193430741752020  0.8353381320712713
  0.6639336540347988  0.0806568618247998  0.1646619259287335
  0.1639336860348015  0.5806568518247990  0.1646619259287335
  0.1639336910347984  0.0806568708248041  0.8353381320712713
  0.6639336680347999  0.5806568518247990  0.8353381320712713
  0.3360663359652002  0.9193430741752020  0.1646619259287335
  0.8360663589651988  0.4193430741752020  0.1646619259287335
  0.5806568358248423  0.3360663239651781  0.8353381320712713
  0.0806569138248416  0.8360663239651781  0.8353381320712713
  0.4193431411751595  0.1639337120348179  0.1646619259287335
  0.9193431171751645  0.6639336760348219  0.1646619259287335
  0.4193431541751641  0.6639336760348219  0.8353381320712713
  0.9193431771751623  0.1639336940348164  0.8353381320712713
  0.5806568498248363  0.8360663239651781  0.1646619259287335
  0.0806569188248385  0.3360663239651781  0.1646619259287335
  0.4193431451751972  0.8360663239651994  0.6646619149287291
  0.9193431311751961  0.3360663239651992  0.6646619149287291
  0.5806568588248031  0.6639336760348006  0.3353380620712724
  0.0806569188248010  0.1639336940347951  0.3353380620712724
  0.5806568448248020  0.1639336760348007  0.6646619149287291
  0.0806569138248041  0.6639336760348006  0.6646619149287291
  0.4193431311751961  0.3360663239651992  0.3353380620712724
  0.9193431451751972  0.8360663239651994  0.3353380620712724
  0.3360663399651794  0.0806568888248360  0.6646619149287291
  0.8360663159651774  0.5806569258248355  0.6646619149287291
  0.1639336880348159  0.9193431481751635  0.3353380620712724
  0.6639337110348212  0.4193430741751646  0.3353380620712724
  0.6639336510348163  0.9193431481751635  0.6646619149287291
  0.1639336920348162  0.4193430741751646  0.6646619149287291
  0.8360663029651799  0.0806568618248373  0.3353380620712724
  0.3360663159651774  0.5806568518248365  0.3353380620712724
  0.4256128684799291  0.3342360343854993  0.9965524342354203
  0.9256128814799267  0.8342360343854992  0.9965524342354203
  0.5743871085200725  0.1657639656145008  0.0034475677645798
  0.0743871365200749  0.6657639656145008  0.0034475677645798
  0.5743871225200736  0.6657639656145008  0.9965524342354203
  0.0743871365200749  0.1657639656145008  0.9965524342354203
  0.4256128814799266  0.8342360343854992  0.0034475677645798
  0.9256128684799292  0.3342360343854993  0.0034475677645798
  0.1657639396145278  0.9256128834799082  0.9965524342354203
  0.6657639996145259  0.4256128834799081  0.9965524342354203
  0.3342360503854716  0.0743871165200919  0.0034475677645798
  0.8342360273854728  0.5743871165200918  0.0034475677645798
  0.8342360143854752  0.0743871345200934  0.9965524342354203
  0.3342360273854732  0.5743871165200918  0.9965524342354203
  0.6657639396145281  0.9256128834799082  0.0034475677645798
  0.1657639626145262  0.4256128834799081  0.0034475677645798
  0.3342360443854930  0.9256128834799269  0.5034476127645801
  0.8342360673854984  0.4256128834799268  0.5034476127645801
  0.1657639466145027  0.0743871165200733  0.4965524342354204
  0.6657639596145003  0.5743871165200731  0.4965524342354204
  0.6657639466145028  0.0743871345200748  0.5034476127645801
  0.1657639596145003  0.5743871165200731  0.5034476127645801
  0.8342360073854934  0.9256128834799269  0.4965524342354204
  0.3342360303854989  0.4256128834799268  0.4965524342354204
  0.4256128764799040  0.1657639476145285  0.5034476127645801
  0.9256128534799057  0.6657639656145231  0.5034476127645801
  0.5743871005200905  0.3342360343854773  0.4965524342354204
  0.0743871325200932  0.8342360343854769  0.4965524342354204
  0.5743871145200916  0.8342360343854769  0.5034476127645801
  0.0743871325200932  0.3342360343854773  0.5034476127645801
  0.4256128894799086  0.6657639656145231  0.4965524342354204
  0.9256129124799071  0.1657639656145229  0.4965524342354204
 
  0.00000000E+00  0.00000000E+00  0.00000000E+00
  0.00000000E+00  0.00000000E+00  0.00000000E+00
  0.00000000E+00  0.00000000E+00  0.00000000E+00
  0.00000000E+00  0.00000000E+00  0.00000000E+00
  0.00000000E+00  0.00000000E+00  0.00000000E+00
  0.00000000E+00  0.00000000E+00  0.00000000E+00
  0.00000000E+00  0.00000000E+00  0.00000000E+00
  0.00000000E+00  0.00000000E+00  0.00000000E+00
  0.00000000E+00  0.00000000E+00  0.00000000E+00
  0.00000000E+00  0.00000000E+00  0.00000000E+00
  0.00000000E+00  0.00000000E+00  0.00000000E+00
  0.00000000E+00  0.00000000E+00  0.00000000E+00
  0.00000000E+00  0.00000000E+00  0.00000000E+00
  0.00000000E+00  0.00000000E+00  0.00000000E+00
  0.00000000E+00  0.00000000E+00  0.00000000E+00
  0.00000000E+00  0.00000000E+00  0.00000000E+00
  0.00000000E+00  0.00000000E+00  0.00000000E+00
  0.00000000E+00  0.00000000E+00  0.00000000E+00
  0.00000000E+00  0.00000000E+00  0.00000000E+00
  0.00000000E+00  0.00000000E+00  0.00000000E+00
  0.00000000E+00  0.00000000E+00  0.00000000E+00
  0.00000000E+00  0.00000000E+00  0.00000000E+00
  0.00000000E+00  0.00000000E+00  0.00000000E+00
  0.00000000E+00  0.00000000E+00  0.00000000E+00
  0.00000000E+00  0.00000000E+00  0.00000000E+00
  0.00000000E+00  0.00000000E+00  0.00000000E+00
  0.00000000E+00  0.00000000E+00  0.00000000E+00
  0.00000000E+00  0.00000000E+00  0.00000000E+00
  0.00000000E+00  0.00000000E+00  0.00000000E+00
  0.00000000E+00  0.00000000E+00  0.00000000E+00
  0.00000000E+00  0.00000000E+00  0.00000000E+00
  0.00000000E+00  0.00000000E+00  0.00000000E+00
  0.00000000E+00  0.00000000E+00  0.00000000E+00
  0.00000000E+00  0.00000000E+00  0.00000000E+00
  0.00000000E+00  0.00000000E+00  0.00000000E+00
  0.00000000E+00  0.00000000E+00  0.00000000E+00
  0.00000000E+00  0.00000000E+00  0.00000000E+00
  0.00000000E+00  0.00000000E+00  0.00000000E+00
  0.00000000E+00  0.00000000E+00  0.00000000E+00
  0.00000000E+00  0.00000000E+00  0.00000000E+00
  0.00000000E+00  0.00000000E+00  0.00000000E+00
  0.00000000E+00  0.00000000E+00  0.00000000E+00
  0.00000000E+00  0.00000000E+00  0.00000000E+00
  0.00000000E+00  0.00000000E+00  0.00000000E+00
  0.00000000E+00  0.00000000E+00  0.00000000E+00
  0.00000000E+00  0.00000000E+00  0.00000000E+00
  0.00000000E+00  0.00000000E+00  0.00000000E+00
  0.00000000E+00  0.00000000E+00  0.00000000E+00
  0.00000000E+00  0.00000000E+00  0.00000000E+00
  0.00000000E+00  0.00000000E+00  0.00000000E+00
  0.00000000E+00  0.00000000E+00  0.00000000E+00
  0.00000000E+00  0.00000000E+00  0.00000000E+00
  0.00000000E+00  0.00000000E+00  0.00000000E+00
  0.00000000E+00  0.00000000E+00  0.00000000E+00
  0.00000000E+00  0.00000000E+00  0.00000000E+00
  0.00000000E+00  0.00000000E+00  0.00000000E+00
  0.00000000E+00  0.00000000E+00  0.00000000E+00
  0.00000000E+00  0.00000000E+00  0.00000000E+00
  0.00000000E+00  0.00000000E+00  0.00000000E+00
  0.00000000E+00  0.00000000E+00  0.00000000E+00
  0.00000000E+00  0.00000000E+00  0.00000000E+00
  0.00000000E+00  0.00000000E+00  0.00000000E+00
  0.00000000E+00  0.00000000E+00  0.00000000E+00
  0.00000000E+00  0.00000000E+00  0.00000000E+00
  0.00000000E+00  0.00000000E+00  0.00000000E+00
  0.00000000E+00  0.00000000E+00  0.00000000E+00
  0.00000000E+00  0.00000000E+00  0.00000000E+00
  0.00000000E+00  0.00000000E+00  0.00000000E+00
  0.00000000E+00  0.00000000E+00  0.00000000E+00
  0.00000000E+00  0.00000000E+00  0.00000000E+00
  0.00000000E+00  0.00000000E+00  0.00000000E+00
  0.00000000E+00  0.00000000E+00  0.00000000E+00
  0.00000000E+00  0.00000000E+00  0.00000000E+00
  0.00000000E+00  0.00000000E+00  0.00000000E+00
  0.00000000E+00  0.00000000E+00  0.00000000E+00
  0.00000000E+00  0.00000000E+00  0.00000000E+00
  0.00000000E+00  0.00000000E+00  0.00000000E+00
  0.00000000E+00  0.00000000E+00  0.00000000E+00
  0.00000000E+00  0.00000000E+00  0.00000000E+00
  0.00000000E+00  0.00000000E+00  0.00000000E+00
  0.00000000E+00  0.00000000E+00  0.00000000E+00
  0.00000000E+00  0.00000000E+00  0.00000000E+00
  0.00000000E+00  0.00000000E+00  0.00000000E+00
  0.00000000E+00  0.00000000E+00  0.00000000E+00
  0.00000000E+00  0.00000000E+00  0.00000000E+00
  0.00000000E+00  0.00000000E+00  0.00000000E+00
  0.00000000E+00  0.00000000E+00  0.00000000E+00
  0.00000000E+00  0.00000000E+00  0.00000000E+00
  0.00000000E+00  0.00000000E+00  0.00000000E+00
  0.00000000E+00  0.00000000E+00  0.00000000E+00
  0.00000000E+00  0.00000000E+00  0.00000000E+00
  0.00000000E+00  0.00000000E+00  0.00000000E+00
  0.00000000E+00  0.00000000E+00  0.00000000E+00
  0.00000000E+00  0.00000000E+00  0.00000000E+00
  0.00000000E+00  0.00000000E+00  0.00000000E+00
  0.00000000E+00  0.00000000E+00  0.00000000E+00
  0.00000000E+00  0.00000000E+00  0.00000000E+00
  0.00000000E+00  0.00000000E+00  0.00000000E+00
  0.00000000E+00  0.00000000E+00  0.00000000E+00
  0.00000000E+00  0.00000000E+00  0.00000000E+00
  0.00000000E+00  0.00000000E+00  0.00000000E+00
  0.00000000E+00  0.00000000E+00  0.00000000E+00
  0.00000000E+00  0.00000000E+00  0.00000000E+00
  0.00000000E+00  0.00000000E+00  0.00000000E+00
  0.00000000E+00  0.00000000E+00  0.00000000E+00
  0.00000000E+00  0.00000000E+00  0.00000000E+00
  0.00000000E+00  0.00000000E+00  0.00000000E+00
  0.00000000E+00  0.00000000E+00  0.00000000E+00
  0.00000000E+00  0.00000000E+00  0.00000000E+00
  0.00000000E+00  0.00000000E+00  0.00000000E+00
  0.00000000E+00  0.00000000E+00  0.00000000E+00
  0.00000000E+00  0.00000000E+00  0.00000000E+00
  0.00000000E+00  0.00000000E+00  0.00000000E+00
  0.00000000E+00  0.00000000E+00  0.00000000E+00
  0.00000000E+00  0.00000000E+00  0.00000000E+00
  0.00000000E+00  0.00000000E+00  0.00000000E+00
  0.00000000E+00  0.00000000E+00  0.00000000E+00
  0.00000000E+00  0.00000000E+00  0.00000000E+00
  0.00000000E+00  0.00000000E+00  0.00000000E+00
  0.00000000E+00  0.00000000E+00  0.00000000E+00
