TaTe4 - P4/mcc                          
   1.00000000000000     
     6.5068965780549251    0.0000000000000000    0.0000000000000000
     0.0000000000000000    6.5068965780549251    0.0000000000000000
     0.0000000000000000   -0.0000000000000000    6.7844582002638232
   Ta   Te
     2     8
Direct
 -0.0000000000000000 -0.0000000000000000  0.2500000000000000
 -0.0000000000000000 -0.0000000000000000  0.7500000000000000
  0.8556041879525026  0.3243080756432940  0.5000000000000000
  0.6756919243567061  0.1443958120474975  0.0000000000000000
  0.6756919243567061  0.8556041879525026  0.5000000000000000
  0.1443958120474975  0.6756919243567061  0.5000000000000000
  0.1443958120474975  0.3243080756432940 -0.0000000000000000
  0.3243080756432940  0.8556041879525026 -0.0000000000000000
  0.8556041879525026  0.6756919243567061  0.0000000000000000
  0.3243080756432940  0.1443958120474975  0.5000000000000000
 
  0.00000000E+00  0.00000000E+00  0.00000000E+00
  0.00000000E+00  0.00000000E+00  0.00000000E+00
  0.00000000E+00  0.00000000E+00  0.00000000E+00
  0.00000000E+00  0.00000000E+00  0.00000000E+00
  0.00000000E+00  0.00000000E+00  0.00000000E+00
  0.00000000E+00  0.00000000E+00  0.00000000E+00
  0.00000000E+00  0.00000000E+00  0.00000000E+00
  0.00000000E+00  0.00000000E+00  0.00000000E+00
  0.00000000E+00  0.00000000E+00  0.00000000E+00
  0.00000000E+00  0.00000000E+00  0.00000000E+00
